 Entering Gaussian System, Link 0=g09
 Input=0,00-bFf-O4H_O1-O3H_O6(C).gjf
 Output=0,00-bFf-O4H_O1-O3H_O6(C).log
 Initial command:
 /home/quitex/g09/l1.exe /home/quitex/g09/scratch/Gau-933.inp -scrdir=/home/quitex/g09/scratch/
 Entering Link 1 = /home/quitex/g09/l1.exe PID=       935.
  
 Copyright (c) 1988,1990,1992,1993,1995,1998,2003,2009, Gaussian, Inc.
                  All Rights Reserved.
  
 This is part of the Gaussian(R) 09 program.  It is based on
 the Gaussian(R) 03 system (copyright 2003, Gaussian, Inc.),
 the Gaussian(R) 98 system (copyright 1998, Gaussian, Inc.),
 the Gaussian(R) 94 system (copyright 1995, Gaussian, Inc.),
 the Gaussian 92(TM) system (copyright 1992, Gaussian, Inc.),
 the Gaussian 90(TM) system (copyright 1990, Gaussian, Inc.),
 the Gaussian 88(TM) system (copyright 1988, Gaussian, Inc.),
 the Gaussian 86(TM) system (copyright 1986, Carnegie Mellon
 University), and the Gaussian 82(TM) system (copyright 1983,
 Carnegie Mellon University). Gaussian is a federally registered
 trademark of Gaussian, Inc.
  
 This software contains proprietary and confidential information,
 including trade secrets, belonging to Gaussian, Inc.
  
 This software is provided under written license and may be
 used, copied, transmitted, or stored only in accord with that
 written license.
  
 The following legend is applicable only to US Government
 contracts under FAR:
  
                    RESTRICTED RIGHTS LEGEND
  
 Use, reproduction and disclosure by the US Government is
 subject to restrictions as set forth in subparagraphs (a)
 and (c) of the Commercial Computer Software - Restricted
 Rights clause in FAR 52.227-19.
  
 Gaussian, Inc.
 340 Quinnipiac St., Bldg. 40, Wallingford CT 06492
  
  
 ---------------------------------------------------------------
 Warning -- This program may not be used in any manner that
 competes with the business of Gaussian, Inc. or will provide
 assistance to any competitor of Gaussian, Inc.  The licensee
 of this program is prohibited from giving any competitor of
 Gaussian, Inc. access to this program.  By using this program,
 the user acknowledges that Gaussian, Inc. is engaged in the
 business of creating and licensing software in the field of
 computational chemistry and represents and warrants to the
 licensee that it is not a competitor of Gaussian, Inc. and that
 it will not use this program in any manner prohibited above.
 ---------------------------------------------------------------
  

 Cite this work as:
 Gaussian 09, Revision A.01,
 M. J. Frisch, G. W. Trucks, H. B. Schlegel, G. E. Scuseria, 
 M. A. Robb, J. R. Cheeseman, G. Scalmani, V. Barone, B. Mennucci, 
 G. A. Petersson, H. Nakatsuji, M. Caricato, X. Li, H. P. Hratchian, 
 A. F. Izmaylov, J. Bloino, G. Zheng, J. L. Sonnenberg, M. Hada, 
 M. Ehara, K. Toyota, R. Fukuda, J. Hasegawa, M. Ishida, T. Nakajima, 
 Y. Honda, O. Kitao, H. Nakai, T. Vreven, J. A. Montgomery, Jr., 
 J. E. Peralta, F. Ogliaro, M. Bearpark, J. J. Heyd, E. Brothers, 
 K. N. Kudin, V. N. Staroverov, R. Kobayashi, J. Normand, 
 K. Raghavachari, A. Rendell, J. C. Burant, S. S. Iyengar, J. Tomasi, 
 M. Cossi, N. Rega, J. M. Millam, M. Klene, J. E. Knox, J. B. Cross, 
 V. Bakken, C. Adamo, J. Jaramillo, R. Gomperts, R. E. Stratmann, 
 O. Yazyev, A. J. Austin, R. Cammi, C. Pomelli, J. W. Ochterski, 
 R. L. Martin, K. Morokuma, V. G. Zakrzewski, G. A. Voth, 
 P. Salvador, J. J. Dannenberg, S. Dapprich, A. D. Daniels, 
 O. Farkas, J. B. Foresman, J. V. Ortiz, J. Cioslowski, 
 and D. J. Fox, Gaussian, Inc., Wallingford CT, 2009.
 
 ******************************************
 Gaussian 09:  EM64L-G09RevA.01  8-May-2009
                 8-Sep-2026 
 ******************************************
 %mem=4GB
 %nprocshared=4
 Will use up to    4 processors via shared memory.
 %chk=bFf-O4H_O1-O3H_O6.chk
 --------------------------------------
 # m062x/6-311++g(d,p) pop(nbo,savenbo)
 --------------------------------------
 1/38=1/1;
 2/12=2,17=6,18=5,40=1/2;
 3/5=4,6=6,7=1111,11=2,16=1,25=1,30=1,74=-55/1,2,3;
 4//1;
 5/5=2,38=5/2;
 6/7=2,8=2,9=2,10=2,28=1,73=1/1,7;
 99/5=1,9=1/99;
 -------------------
 Title Card Required
 -------------------
 Symbolic Z-matrix:
 Charge =  0 Multiplicity = 1
 H                     0.08142   2.53702   0.12768 
 O                     0.83378   2.1911   -0.37516 
 C                     0.84017   0.81881  -0.19414 
 O                     0.03222   0.18885  -1.19204 
 C                    -0.71075  -0.91601  -0.66403 
 H                    -0.36306  -1.84249  -1.13185 
 C                    -2.1772   -0.74148  -0.99856 
 H                    -2.71705  -1.6477   -0.70715 
 H                    -2.28879  -0.58682  -2.07516 
 O                    -2.66942   0.38874  -0.28351 
 H                    -3.61352   0.48937  -0.43364 
 C                    -0.41434  -0.97647   0.85468 
 H                    -1.3288   -1.12166   1.4314 
 O                     0.45259  -2.03198   1.20635 
 H                     1.27272  -1.92017   0.69924 
 C                     0.17741   0.40764   1.14553 
 H                     0.89784   0.37152   1.96298 
 O                    -0.81243   1.35893   1.48557 
 H                    -1.61639   1.15776   0.97324 
 C                     2.29119   0.37603  -0.37742 
 H                     2.68462   0.87377  -1.26727 
 H                     2.88275   0.6769    0.48762 
 O                     2.40413  -1.03521  -0.4999 
 H                     2.14238  -1.28192  -1.39392 
 
                          Input orientation:                          
 ---------------------------------------------------------------------
 Center     Atomic      Atomic             Coordinates (Angstroms)
 Number     Number       Type             X           Y           Z
 ---------------------------------------------------------------------
      1          1           0        0.081422    2.537020    0.127679
      2          8           0        0.833777    2.191102   -0.375163
      3          6           0        0.840172    0.818805   -0.194139
      4          8           0        0.032222    0.188846   -1.192042
      5          6           0       -0.710747   -0.916014   -0.664034
      6          1           0       -0.363060   -1.842494   -1.131851
      7          6           0       -2.177199   -0.741484   -0.998558
      8          1           0       -2.717049   -1.647701   -0.707151
      9          1           0       -2.288793   -0.586820   -2.075161
     10          8           0       -2.669418    0.388736   -0.283506
     11          1           0       -3.613523    0.489369   -0.433644
     12          6           0       -0.414336   -0.976472    0.854680
     13          1           0       -1.328799   -1.121663    1.431396
     14          8           0        0.452589   -2.031977    1.206349
     15          1           0        1.272724   -1.920173    0.699243
     16          6           0        0.177412    0.407638    1.145525
     17          1           0        0.897843    0.371524    1.962978
     18          8           0       -0.812433    1.358926    1.485570
     19          1           0       -1.616388    1.157764    0.973241
     20          6           0        2.291185    0.376029   -0.377416
     21          1           0        2.684621    0.873771   -1.267272
     22          1           0        2.882747    0.676898    0.487617
     23          8           0        2.404132   -1.035208   -0.499897
     24          1           0        2.142383   -1.281921   -1.393916
 ---------------------------------------------------------------------
                    Distance matrix (angstroms):
                    1          2          3          4          5
     1  H    0.000000
     2  O    0.968787   0.000000
     3  C    1.905658   1.384200   0.000000
     4  O    2.694069   2.306255   1.430189   0.000000
     5  C    3.630122   3.481834   2.373973   1.432310   0.000000
     6  H    4.578660   4.274914   3.067504   2.070317   1.094579
     7  C    4.137435   4.249077   3.490862   2.405097   1.514215
     8  H    5.102967   5.239751   4.358974   3.341634   2.135995
     9  H    4.497644   4.511905   3.912090   2.601666   2.142400
    10  O    3.514444   3.940723   3.536972   2.857316   2.384023
    11  H    4.261523   4.762121   4.472280   3.735899   3.233309
    12  C    3.622007   3.619921   2.428339   2.397176   1.548550
    13  H    4.132114   4.349115   3.333499   3.232992   2.194335
    14  O    4.709249   4.525581   3.199773   3.295610   2.469222
    15  H    4.648920   4.271956   2.913286   3.092534   2.607876
    16  C    2.362095   2.433937   1.550164   2.352269   2.411511
    17  H    2.953682   2.963422   2.203756   3.276709   3.338639
    18  O    2.007673   2.620086   2.417490   3.041732   3.131531
    19  H    2.345183   2.981491   2.740868   2.888800   2.793100
    20  C    3.131782   2.327774   1.528097   2.408644   3.280720
    21  H    3.389532   2.440664   2.134626   2.740438   3.885325
    22  H    3.381868   2.689885   2.158018   3.344390   4.095957
    23  O    4.306930   3.590355   2.444754   2.757414   3.121477
    24  H    4.598600   3.848662   2.747411   2.580056   2.967653
                    6          7          8          9         10
     6  H    0.000000
     7  C    2.126286   0.000000
     8  H    2.399912   1.094342   0.000000
     9  H    2.484954   1.093366   1.783346   0.000000
    10  O    3.319241   1.425123   2.080582   2.075238   0.000000
    11  H    4.060860   1.974121   2.333568   2.368052   0.961251
    12  C    2.167701   2.568540   2.862228   3.499912   2.871351
    13  H    2.832399   2.601729   2.603332   3.674723   2.649425
    14  O    2.483620   3.666439   3.722332   4.513531   4.222138
    15  H    2.456568   4.021667   4.239160   4.707393   4.673044
    16  C    3.246790   3.385523   4.004339   4.176593   3.185424
    17  H    4.008705   4.411957   4.926896   5.232556   4.215725
    18  O    4.159558   3.527776   4.180358   4.317913   2.742133
    19  H    3.873473   2.794574   3.450479   3.576095   1.810991
    20  C    3.540626   4.647699   5.411711   4.978515   4.961508
    21  H    4.084702   5.130161   5.987453   5.246033   5.465234
    22  H    4.416478   5.461097   6.179721   5.908438   5.612861
    23  O    2.951005   4.617741   5.161840   4.970518   5.274026
    24  H    2.580730   4.371175   4.921333   4.536803   5.213208
                   11         12         13         14         15
    11  H    0.000000
    12  C    3.747435   0.000000
    13  H    3.360619   1.090837   0.000000
    14  O    5.057670   1.410433   2.013122   0.000000
    15  H    5.564597   1.939305   2.818082   0.970710   0.000000
    16  C    4.107511   1.533140   2.165446   2.455839   2.611050
    17  H    5.109805   2.183399   2.733152   2.558819   2.643754
    18  O    3.505084   2.451650   2.534342   3.629941   3.964679
    19  H    2.532711   2.452335   2.342734   3.809128   4.230336
    20  C    5.906063   3.266062   4.314993   3.418661   2.732947
    21  H    6.364693   4.186838   5.231836   4.420875   3.696858
    22  H    6.563948   3.706632   4.675752   3.709481   3.062962
    23  O    6.208131   3.127633   4.203825   2.777291   1.871145
    24  H    6.098364   3.418522   4.478524   3.190512   2.354780
                   16         17         18         19         20
    16  C    0.000000
    17  H    1.090208   0.000000
    18  O    1.414345   2.031730   0.000000
    19  H    1.951945   2.814091   0.974316   0.000000
    20  C    2.605453   2.723760   3.750900   4.207673   0.000000
    21  H    3.510693   3.725499   4.476930   4.857904   1.092878
    22  H    2.797174   2.491944   3.887856   4.550745   1.090298
    23  O    3.122099   3.211472   4.474399   4.810805   1.421038
    24  H    3.628289   3.943539   4.898617   5.067924   1.950439
                   21         22         23         24
    21  H    0.000000
    22  H    1.776977   0.000000
    23  O    2.076473   2.033608   0.000000
    24  H    2.226448   2.815187   0.963665   0.000000
 Stoichiometry    C6H12O6
 Framework group  C1[X(C6H12O6)]
 Deg. of freedom    66
 Full point group                 C1      NOp   1
 Largest Abelian subgroup         C1      NOp   1
 Largest concise Abelian subgroup C1      NOp   1
                         Standard orientation:                         
 ---------------------------------------------------------------------
 Center     Atomic      Atomic             Coordinates (Angstroms)
 Number     Number       Type             X           Y           Z
 ---------------------------------------------------------------------
      1          1           0        0.081422    2.537020    0.127679
      2          8           0        0.833777    2.191102   -0.375163
      3          6           0        0.840172    0.818805   -0.194139
      4          8           0        0.032222    0.188846   -1.192042
      5          6           0       -0.710747   -0.916014   -0.664034
      6          1           0       -0.363060   -1.842494   -1.131851
      7          6           0       -2.177199   -0.741484   -0.998558
      8          1           0       -2.717049   -1.647701   -0.707151
      9          1           0       -2.288793   -0.586820   -2.075161
     10          8           0       -2.669418    0.388736   -0.283506
     11          1           0       -3.613523    0.489369   -0.433644
     12          6           0       -0.414336   -0.976472    0.854680
     13          1           0       -1.328799   -1.121663    1.431396
     14          8           0        0.452589   -2.031977    1.206349
     15          1           0        1.272724   -1.920173    0.699243
     16          6           0        0.177412    0.407638    1.145525
     17          1           0        0.897843    0.371524    1.962978
     18          8           0       -0.812433    1.358926    1.485570
     19          1           0       -1.616388    1.157764    0.973241
     20          6           0        2.291185    0.376029   -0.377416
     21          1           0        2.684621    0.873771   -1.267272
     22          1           0        2.882747    0.676898    0.487617
     23          8           0        2.404132   -1.035208   -0.499897
     24          1           0        2.142383   -1.281921   -1.393916
 ---------------------------------------------------------------------
 Rotational constants (GHZ):      1.2475425      0.8841914      0.7470559
 Standard basis: 6-311++G(d,p) (5D, 7F)
 There are   348 symmetry adapted basis functions of A   symmetry.
 Integral buffers will be    131072 words long.
 Raffenetti 2 integral format.
 Two-electron integral symmetry is turned on.
   348 basis functions,   540 primitive gaussians,   360 cartesian basis functions
    48 alpha electrons       48 beta electrons
       nuclear repulsion energy       865.8202654993 Hartrees.
 NAtoms=   24 NActive=   24 NUniq=   24 SFac= 7.50D-01 NAtFMM=   80 NAOKFM=F Big=F
 One-electron integrals computed using PRISM.
 NBasis=   348 RedAO= T  NBF=   348
 NBsUse=   348 1.00D-06 NBFU=   348
 Harris functional with IExCor= 1009 diagonalized for initial guess.
 ExpMin= 3.60D-02 ExpMax= 8.59D+03 ExpMxC= 1.30D+03 IAcc=3 IRadAn=         0 AccDes= 0.00D+00
 HarFok:  IExCor= 1009 AccDes= 0.00D+00 IRadAn=         0 IDoV= 1
 ScaDFX=  1.000000  1.000000  1.000000  1.000000
 FoFCou: FMM=F IPFlag=           0 FMFlag=      100000 FMFlg1=           0
         NFxFlg=           0 DoJE=T BraDBF=F KetDBF=T FulRan=T
         Omega=  0.000000  0.000000  1.000000  0.000000  0.000000 ICntrl=     500 IOpCl=  0
         NMat0=    1 NMatS0=    1 NMatT0=    0 NMatD0=    1 NMtDS0=    0 NMtDT0=    0
         I1Cent=           4 NGrid=           0.
 Petite list used in FoFCou.
 Initial guess orbital symmetries:
       Occupied  (A) (A) (A) (A) (A) (A) (A) (A) (A) (A) (A) (A)
                 (A) (A) (A) (A) (A) (A) (A) (A) (A) (A) (A) (A)
                 (A) (A) (A) (A) (A) (A) (A) (A) (A) (A) (A) (A)
                 (A) (A) (A) (A) (A) (A) (A) (A) (A) (A) (A) (A)
       Virtual   (A) (A) (A) (A) (A) (A) (A) (A) (A) (A) (A) (A)
                 (A) (A) (A) (A) (A) (A) (A) (A) (A) (A) (A) (A)
                 (A) (A) (A) (A) (A) (A) (A) (A) (A) (A) (A) (A)
                 (A) (A) (A) (A) (A) (A) (A) (A) (A) (A) (A) (A)
                 (A) (A) (A) (A) (A) (A) (A) (A) (A) (A) (A) (A)
                 (A) (A) (A) (A) (A) (A) (A) (A) (A) (A) (A) (A)
                 (A) (A) (A) (A) (A) (A) (A) (A) (A) (A) (A) (A)
                 (A) (A) (A) (A) (A) (A) (A) (A) (A) (A) (A) (A)
                 (A) (A) (A) (A) (A) (A) (A) (A) (A) (A) (A) (A)
                 (A) (A) (A) (A) (A) (A) (A) (A) (A) (A) (A) (A)
                 (A) (A) (A) (A) (A) (A) (A) (A) (A) (A) (A) (A)
                 (A) (A) (A) (A) (A) (A) (A) (A) (A) (A) (A) (A)
                 (A) (A) (A) (A) (A) (A) (A) (A) (A) (A) (A) (A)
                 (A) (A) (A) (A) (A) (A) (A) (A) (A) (A) (A) (A)
                 (A) (A) (A) (A) (A) (A) (A) (A) (A) (A) (A) (A)
                 (A) (A) (A) (A) (A) (A) (A) (A) (A) (A) (A) (A)
                 (A) (A) (A) (A) (A) (A) (A) (A) (A) (A) (A) (A)
                 (A) (A) (A) (A) (A) (A) (A) (A) (A) (A) (A) (A)
                 (A) (A) (A) (A) (A) (A) (A) (A) (A) (A) (A) (A)
                 (A) (A) (A) (A) (A) (A) (A) (A) (A) (A) (A) (A)
                 (A) (A) (A) (A) (A) (A) (A) (A) (A) (A) (A) (A)
                 (A) (A) (A) (A) (A) (A) (A) (A) (A) (A) (A) (A)
                 (A) (A) (A) (A) (A) (A) (A) (A) (A) (A) (A) (A)
                 (A) (A) (A) (A) (A) (A) (A) (A) (A) (A) (A) (A)
                 (A) (A) (A) (A) (A) (A) (A) (A) (A) (A) (A) (A)
 The electronic state of the initial guess is 1-A.
 Requested convergence on RMS density matrix=1.00D-08 within 128 cycles.
 Requested convergence on MAX density matrix=1.00D-06.
 Requested convergence on             energy=1.00D-06.
 No special actions if energy rises.
 SCF Done:  E(RM062X) =  -687.145253646     A.U. after   13 cycles
             Convg  =    0.5549D-08             -V/T =  2.0033

 **********************************************************************

            Population analysis using the SCF density.

 **********************************************************************

 Orbital symmetries:
       Occupied  (A) (A) (A) (A) (A) (A) (A) (A) (A) (A) (A) (A)
                 (A) (A) (A) (A) (A) (A) (A) (A) (A) (A) (A) (A)
                 (A) (A) (A) (A) (A) (A) (A) (A) (A) (A) (A) (A)
                 (A) (A) (A) (A) (A) (A) (A) (A) (A) (A) (A) (A)
       Virtual   (A) (A) (A) (A) (A) (A) (A) (A) (A) (A) (A) (A)
                 (A) (A) (A) (A) (A) (A) (A) (A) (A) (A) (A) (A)
                 (A) (A) (A) (A) (A) (A) (A) (A) (A) (A) (A) (A)
                 (A) (A) (A) (A) (A) (A) (A) (A) (A) (A) (A) (A)
                 (A) (A) (A) (A) (A) (A) (A) (A) (A) (A) (A) (A)
                 (A) (A) (A) (A) (A) (A) (A) (A) (A) (A) (A) (A)
                 (A) (A) (A) (A) (A) (A) (A) (A) (A) (A) (A) (A)
                 (A) (A) (A) (A) (A) (A) (A) (A) (A) (A) (A) (A)
                 (A) (A) (A) (A) (A) (A) (A) (A) (A) (A) (A) (A)
                 (A) (A) (A) (A) (A) (A) (A) (A) (A) (A) (A) (A)
                 (A) (A) (A) (A) (A) (A) (A) (A) (A) (A) (A) (A)
                 (A) (A) (A) (A) (A) (A) (A) (A) (A) (A) (A) (A)
                 (A) (A) (A) (A) (A) (A) (A) (A) (A) (A) (A) (A)
                 (A) (A) (A) (A) (A) (A) (A) (A) (A) (A) (A) (A)
                 (A) (A) (A) (A) (A) (A) (A) (A) (A) (A) (A) (A)
                 (A) (A) (A) (A) (A) (A) (A) (A) (A) (A) (A) (A)
                 (A) (A) (A) (A) (A) (A) (A) (A) (A) (A) (A) (A)
                 (A) (A) (A) (A) (A) (A) (A) (A) (A) (A) (A) (A)
                 (A) (A) (A) (A) (A) (A) (A) (A) (A) (A) (A) (A)
                 (A) (A) (A) (A) (A) (A) (A) (A) (A) (A) (A) (A)
                 (A) (A) (A) (A) (A) (A) (A) (A) (A) (A) (A) (A)
                 (A) (A) (A) (A) (A) (A) (A) (A) (A) (A) (A) (A)
                 (A) (A) (A) (A) (A) (A) (A) (A) (A) (A) (A) (A)
                 (A) (A) (A) (A) (A) (A) (A) (A) (A) (A) (A) (A)
                 (A) (A) (A) (A) (A) (A) (A) (A) (A) (A) (A) (A)
 The electronic state is 1-A.
 Alpha  occ. eigenvalues --  -19.66289 -19.65253 -19.63767 -19.62849 -19.62783
 Alpha  occ. eigenvalues --  -19.61730 -10.64795 -10.61160 -10.60826 -10.60142
 Alpha  occ. eigenvalues --  -10.59818 -10.59723  -1.21739  -1.18504  -1.17342
 Alpha  occ. eigenvalues --   -1.15285  -1.14943  -1.13217  -0.88979  -0.86952
 Alpha  occ. eigenvalues --   -0.81293  -0.75668  -0.71137  -0.68349  -0.65690
 Alpha  occ. eigenvalues --   -0.63288  -0.59869  -0.59323  -0.58851  -0.57712
 Alpha  occ. eigenvalues --   -0.55546  -0.54611  -0.52706  -0.51876  -0.50036
 Alpha  occ. eigenvalues --   -0.48198  -0.47365  -0.45411  -0.44560  -0.43620
 Alpha  occ. eigenvalues --   -0.41987  -0.40854  -0.39824  -0.38844  -0.37909
 Alpha  occ. eigenvalues --   -0.37127  -0.34551  -0.32992
 Alpha virt. eigenvalues --   -0.01713  -0.00484   0.00916   0.01446   0.02131
 Alpha virt. eigenvalues --    0.02731   0.03097   0.03892   0.04578   0.05501
 Alpha virt. eigenvalues --    0.06190   0.06440   0.07478   0.08395   0.09038
 Alpha virt. eigenvalues --    0.09654   0.10459   0.10639   0.11427   0.11800
 Alpha virt. eigenvalues --    0.12066   0.12156   0.13025   0.13100   0.13828
 Alpha virt. eigenvalues --    0.13928   0.14710   0.15080   0.15544   0.15766
 Alpha virt. eigenvalues --    0.16229   0.16749   0.17189   0.18048   0.19305
 Alpha virt. eigenvalues --    0.20229   0.21067   0.21348   0.21423   0.22298
 Alpha virt. eigenvalues --    0.22853   0.23238   0.23604   0.24534   0.25003
 Alpha virt. eigenvalues --    0.25832   0.26784   0.27117   0.28188   0.28288
 Alpha virt. eigenvalues --    0.28968   0.29477   0.30101   0.30518   0.31073
 Alpha virt. eigenvalues --    0.31397   0.32490   0.32897   0.32988   0.33964
 Alpha virt. eigenvalues --    0.34226   0.34725   0.34870   0.34960   0.35909
 Alpha virt. eigenvalues --    0.36363   0.36544   0.37264   0.37630   0.38224
 Alpha virt. eigenvalues --    0.39256   0.39863   0.40130   0.41194   0.41972
 Alpha virt. eigenvalues --    0.42713   0.43408   0.44704   0.45505   0.46871
 Alpha virt. eigenvalues --    0.47727   0.50053   0.51067   0.52106   0.54678
 Alpha virt. eigenvalues --    0.56715   0.57833   0.58416   0.60653   0.60819
 Alpha virt. eigenvalues --    0.61477   0.62530   0.64085   0.64331   0.65832
 Alpha virt. eigenvalues --    0.66594   0.67927   0.68441   0.69770   0.70351
 Alpha virt. eigenvalues --    0.72198   0.72758   0.74274   0.74643   0.75477
 Alpha virt. eigenvalues --    0.75868   0.76730   0.78931   0.79835   0.81483
 Alpha virt. eigenvalues --    0.83009   0.84214   0.86455   0.87412   0.95028
 Alpha virt. eigenvalues --    0.98153   1.03422   1.05039   1.05303   1.06958
 Alpha virt. eigenvalues --    1.11270   1.13308   1.14494   1.15998   1.17183
 Alpha virt. eigenvalues --    1.17600   1.19722   1.21442   1.22375   1.23811
 Alpha virt. eigenvalues --    1.24406   1.26218   1.27303   1.28484   1.29154
 Alpha virt. eigenvalues --    1.31350   1.33332   1.34549   1.35333   1.36124
 Alpha virt. eigenvalues --    1.37725   1.39704   1.41847   1.44885   1.45960
 Alpha virt. eigenvalues --    1.47138   1.48424   1.50267   1.52235   1.52547
 Alpha virt. eigenvalues --    1.55230   1.57274   1.58163   1.59059   1.60037
 Alpha virt. eigenvalues --    1.61674   1.63304   1.64826   1.65416   1.66570
 Alpha virt. eigenvalues --    1.67307   1.67739   1.68772   1.70910   1.72166
 Alpha virt. eigenvalues --    1.74112   1.74485   1.76434   1.77108   1.77799
 Alpha virt. eigenvalues --    1.79171   1.81396   1.83889   1.85296   1.86339
 Alpha virt. eigenvalues --    1.86943   1.89516   1.91614   1.93421   1.94539
 Alpha virt. eigenvalues --    1.95318   1.98898   1.99704   2.02130   2.05285
 Alpha virt. eigenvalues --    2.07566   2.08533   2.10022   2.12502   2.14110
 Alpha virt. eigenvalues --    2.15674   2.18325   2.18814   2.19734   2.21778
 Alpha virt. eigenvalues --    2.26207   2.28665   2.29069   2.30884   2.33507
 Alpha virt. eigenvalues --    2.39022   2.41724   2.43457   2.52163   2.54865
 Alpha virt. eigenvalues --    2.56535   2.57761   2.58533   2.59195   2.63395
 Alpha virt. eigenvalues --    2.65492   2.67739   2.69814   2.74557   2.77726
 Alpha virt. eigenvalues --    2.78577   2.80480   2.82689   2.89289   2.90941
 Alpha virt. eigenvalues --    2.91838   2.92660   2.93308   2.96652   2.98485
 Alpha virt. eigenvalues --    3.02205   3.05270   3.06291   3.07282   3.10722
 Alpha virt. eigenvalues --    3.12671   3.14287   3.17935   3.18944   3.19550
 Alpha virt. eigenvalues --    3.20227   3.22432   3.22964   3.25291   3.25986
 Alpha virt. eigenvalues --    3.28172   3.29827   3.34787   3.35110   3.36359
 Alpha virt. eigenvalues --    3.37679   3.40522   3.42675   3.46280   3.52013
 Alpha virt. eigenvalues --    3.58605   3.61140   3.84456   3.84941   3.87668
 Alpha virt. eigenvalues --    3.91997   3.92890   3.94959   3.96449   3.99383
 Alpha virt. eigenvalues --    4.02676   4.05266   4.07029   4.12424   4.20624
 Alpha virt. eigenvalues --    4.21548   4.23498   4.30120   4.36634   4.42020
 Alpha virt. eigenvalues --    5.15856   5.21574   5.23436   5.27419   5.29422
 Alpha virt. eigenvalues --    5.34130   5.45490   5.53194   5.55281   5.56231
 Alpha virt. eigenvalues --    5.60096   5.61073   5.71373   5.74298   5.76423
 Alpha virt. eigenvalues --    5.80079   5.83667   5.93467  23.80194  23.88239
 Alpha virt. eigenvalues --   23.91077  23.92924  23.94330  24.00603  50.00696
 Alpha virt. eigenvalues --   50.02718  50.06923  50.09422  50.11012  50.12524
          Condensed to atoms (all electrons):
              1          2          3          4          5          6
     1  H    0.428501   0.271344   0.077595  -0.007384  -0.004219  -0.001649
     2  O    0.271344   7.921904   0.063616  -0.015586   0.015779  -0.004708
     3  C    0.077595   0.063616  11.450720   0.201079  -2.462902  -0.082566
     4  O   -0.007384  -0.015586   0.201079   8.106662   0.169285  -0.057459
     5  C   -0.004219   0.015779  -2.462902   0.169285  10.546918   0.435243
     6  H   -0.001649  -0.004708  -0.082566  -0.057459   0.435243   0.570348
     7  C   -0.012191   0.010592  -0.047584  -0.074406  -0.884285  -0.036611
     8  H    0.000017   0.000607  -0.021639   0.019582   0.002555  -0.000824
     9  H   -0.000309   0.000835   0.014906  -0.024996  -0.110722  -0.007017
    10  O   -0.001789  -0.001108  -0.054833   0.018834  -0.061790   0.022132
    11  H   -0.000993  -0.000374   0.009777   0.002333  -0.062529   0.000393
    12  C    0.046599  -0.026092   2.530032  -0.024139  -3.985084  -0.129414
    13  H    0.002791  -0.003346  -0.068098  -0.014107   0.033977   0.001350
    14  O   -0.000357   0.002067   0.052156   0.011447  -0.158124  -0.014907
    15  H    0.000541  -0.004256   0.025183  -0.020114   0.016207   0.001778
    16  C   -0.148838   0.218188  -4.366211   0.001831   2.124297   0.069320
    17  H   -0.009650   0.000523   0.146756   0.011719  -0.015609   0.008273
    18  O    0.057986  -0.056214  -0.030832   0.007462   0.028530   0.001935
    19  H   -0.006411  -0.003072   0.041001  -0.000307   0.046008  -0.003193
    20  C    0.020208  -0.228098  -1.238131  -0.308578   0.393300   0.006931
    21  H   -0.000019  -0.018182  -0.037965  -0.035511   0.007903   0.002775
    22  H   -0.000498   0.016179  -0.134409   0.023745   0.001256  -0.004381
    23  O   -0.000263   0.026764  -0.050631   0.031675   0.129654  -0.013328
    24  H   -0.000809   0.000041  -0.011076   0.012862  -0.044104  -0.006009
              7          8          9         10         11         12
     1  H   -0.012191   0.000017  -0.000309  -0.001789  -0.000993   0.046599
     2  O    0.010592   0.000607   0.000835  -0.001108  -0.000374  -0.026092
     3  C   -0.047584  -0.021639   0.014906  -0.054833   0.009777   2.530032
     4  O   -0.074406   0.019582  -0.024996   0.018834   0.002333  -0.024139
     5  C   -0.884285   0.002555  -0.110722  -0.061790  -0.062529  -3.985084
     6  H   -0.036611  -0.000824  -0.007017   0.022132   0.000393  -0.129414
     7  C    6.450695   0.358021   0.445488   0.114170   0.074983   0.056111
     8  H    0.358021   0.598656  -0.070877  -0.078449  -0.014302   0.005313
     9  H    0.445488  -0.070877   0.569432  -0.049919   0.005147   0.027126
    10  O    0.114170  -0.078449  -0.049919   8.294790   0.171840  -0.014447
    11  H    0.074983  -0.014302   0.005147   0.171840   0.483941   0.005526
    12  C    0.056111   0.005313   0.027126  -0.014447   0.005526  11.836387
    13  H   -0.046366  -0.004568   0.004388   0.011397  -0.004596   0.261425
    14  O    0.069585  -0.006837   0.001182   0.004733   0.000260   0.378132
    15  H   -0.018179   0.000293  -0.000148  -0.000850  -0.000132  -0.017101
    16  C    0.149934   0.033961  -0.029698   0.039178   0.002885  -4.148333
    17  H    0.014144   0.000956  -0.001451   0.001101   0.000790  -0.150764
    18  O   -0.016278  -0.007467   0.007864   0.007321   0.002351  -0.047729
    19  H   -0.020587   0.005878  -0.005597  -0.062163   0.000383  -0.041960
    20  C   -0.011868  -0.011292   0.015851   0.005446   0.000354  -0.160242
    21  H    0.008435  -0.000396   0.000012  -0.000324   0.000209  -0.001953
    22  H    0.002043  -0.000198   0.000810   0.000246  -0.000053  -0.012035
    23  O    0.046973   0.000608  -0.001102  -0.002143   0.000163  -0.141119
    24  H   -0.009714   0.000986   0.000683   0.000390  -0.000195   0.038819
             13         14         15         16         17         18
     1  H    0.002791  -0.000357   0.000541  -0.148838  -0.009650   0.057986
     2  O   -0.003346   0.002067  -0.004256   0.218188   0.000523  -0.056214
     3  C   -0.068098   0.052156   0.025183  -4.366211   0.146756  -0.030832
     4  O   -0.014107   0.011447  -0.020114   0.001831   0.011719   0.007462
     5  C    0.033977  -0.158124   0.016207   2.124297  -0.015609   0.028530
     6  H    0.001350  -0.014907   0.001778   0.069320   0.008273   0.001935
     7  C   -0.046366   0.069585  -0.018179   0.149934   0.014144  -0.016278
     8  H   -0.004568  -0.006837   0.000293   0.033961   0.000956  -0.007467
     9  H    0.004388   0.001182  -0.000148  -0.029698  -0.001451   0.007864
    10  O    0.011397   0.004733  -0.000850   0.039178   0.001101   0.007321
    11  H   -0.004596   0.000260  -0.000132   0.002885   0.000790   0.002351
    12  C    0.261425   0.378132  -0.017101  -4.148333  -0.150764  -0.047729
    13  H    0.532641  -0.068663   0.025048   0.069997  -0.013976   0.004458
    14  O   -0.068663   7.852555   0.255762  -0.198108   0.000749   0.009866
    15  H    0.025048   0.255762   0.449294   0.003420  -0.001998  -0.000547
    16  C    0.069997  -0.198108   0.003420  12.012092   0.358425   0.123650
    17  H   -0.013976   0.000749  -0.001998   0.358425   0.532774  -0.055723
    18  O    0.004458   0.009866  -0.000547   0.123650  -0.055723   7.900729
    19  H   -0.015237   0.001144  -0.001199   0.024786   0.016662   0.285726
    20  C    0.022931  -0.026520   0.044081   0.038399  -0.106594   0.042400
    21  H    0.000595  -0.004972   0.001315  -0.001586   0.004786  -0.002205
    22  H   -0.003695   0.009018  -0.010669  -0.012926  -0.015273  -0.001614
    23  O   -0.002800   0.015665  -0.027052   0.068843  -0.000050  -0.004730
    24  H   -0.000074  -0.009212  -0.007058   0.004275   0.000878  -0.000472
             19         20         21         22         23         24
     1  H   -0.006411   0.020208  -0.000019  -0.000498  -0.000263  -0.000809
     2  O   -0.003072  -0.228098  -0.018182   0.016179   0.026764   0.000041
     3  C    0.041001  -1.238131  -0.037965  -0.134409  -0.050631  -0.011076
     4  O   -0.000307  -0.308578  -0.035511   0.023745   0.031675   0.012862
     5  C    0.046008   0.393300   0.007903   0.001256   0.129654  -0.044104
     6  H   -0.003193   0.006931   0.002775  -0.004381  -0.013328  -0.006009
     7  C   -0.020587  -0.011868   0.008435   0.002043   0.046973  -0.009714
     8  H    0.005878  -0.011292  -0.000396  -0.000198   0.000608   0.000986
     9  H   -0.005597   0.015851   0.000012   0.000810  -0.001102   0.000683
    10  O   -0.062163   0.005446  -0.000324   0.000246  -0.002143   0.000390
    11  H    0.000383   0.000354   0.000209  -0.000053   0.000163  -0.000195
    12  C   -0.041960  -0.160242  -0.001953  -0.012035  -0.141119   0.038819
    13  H   -0.015237   0.022931   0.000595  -0.003695  -0.002800  -0.000074
    14  O    0.001144  -0.026520  -0.004972   0.009018   0.015665  -0.009212
    15  H   -0.001199   0.044081   0.001315  -0.010669  -0.027052  -0.007058
    16  C    0.024786   0.038399  -0.001586  -0.012926   0.068843   0.004275
    17  H    0.016662  -0.106594   0.004786  -0.015273  -0.000050   0.000878
    18  O    0.285726   0.042400  -0.002205  -0.001614  -0.004730  -0.000472
    19  H    0.436007  -0.033881  -0.001331   0.000628   0.000648   0.001295
    20  C   -0.033881   7.094588   0.384856   0.468251  -0.052893  -0.006424
    21  H   -0.001331   0.384856   0.540253  -0.033947  -0.008284  -0.029699
    22  H    0.000628   0.468251  -0.033947   0.534778  -0.063331   0.011467
    23  O    0.000648  -0.052893  -0.008284  -0.063331   8.055944   0.275001
    24  H    0.001295  -0.006424  -0.029699   0.011467   0.275001   0.476076
 Mulliken atomic charges:
              1
     1  H    0.289796
     2  O   -0.187403
     3  C   -0.005945
     4  O   -0.035930
     5  C   -0.161544
     6  H    0.241588
     7  C   -0.623104
     8  H    0.189416
     9  H    0.208110
    10  O   -0.363761
    11  H    0.321837
    12  C   -0.285055
    13  H    0.274527
    14  O   -0.176620
    15  H    0.286380
    16  C   -0.437779
    17  H    0.272552
    18  O   -0.256467
    19  H    0.334774
    20  C   -0.353074
    21  H    0.225235
    22  H    0.224607
    23  O   -0.284212
    24  H    0.302072
 Sum of Mulliken atomic charges =   0.00000
 Mulliken charges with hydrogens summed into heavy atoms:
              1
     2  O    0.102393
     3  C   -0.005945
     4  O   -0.035930
     5  C    0.080044
     7  C   -0.225578
    10  O   -0.041924
    12  C   -0.010529
    14  O    0.109760
    16  C   -0.165226
    18  O    0.078307
    20  C    0.096768
    23  O    0.017860
 Sum of Mulliken charges with hydrogens summed into heavy atoms =   0.00000
 Electronic spatial extent (au):  <R**2>=           1797.6198
 Charge=              0.0000 electrons
 Dipole moment (field-independent basis, Debye):
    X=             -2.8871    Y=             -1.2086    Z=             -2.3472  Tot=              3.9122
 Quadrupole moment (field-independent basis, Debye-Ang):
   XX=            -56.9647   YY=            -79.5011   ZZ=            -75.1746
   XY=              1.3296   XZ=              2.0821   YZ=              6.7666
 Traceless Quadrupole moment (field-independent basis, Debye-Ang):
   XX=             13.5821   YY=             -8.9543   ZZ=             -4.6278
   XY=              1.3296   XZ=              2.0821   YZ=              6.7666
 Octapole moment (field-independent basis, Debye-Ang**2):
  XXX=            -58.8338  YYY=              9.2136  ZZZ=            -12.7687  XYY=            -11.6218
  XXY=              5.9149  XXZ=            -13.1747  XZZ=              6.0249  YZZ=             -6.2112
  YYZ=            -13.2035  XYZ=              6.7342
 Hexadecapole moment (field-independent basis, Debye-Ang**3):
 XXXX=           -895.8132 YYYY=           -698.5543 ZZZZ=           -452.0744 XXXY=            -10.3744
 XXXZ=             24.0912 YYYX=            -39.4953 YYYZ=             36.0751 ZZZX=             -3.4496
 ZZZY=              8.8316 XXYY=           -293.3969 XXZZ=           -227.9675 YYZZ=           -207.9549
 XXYZ=              3.4709 YYXZ=             -2.9658 ZZXY=             -0.1101
 N-N= 8.658202654993D+02 E-N=-3.345815352718D+03  KE= 6.848726442297D+02
 ******************************Gaussian NBO Version 3.1******************************
             N A T U R A L   A T O M I C   O R B I T A L   A N D
          N A T U R A L   B O N D   O R B I T A L   A N A L Y S I S
 ******************************Gaussian NBO Version 3.1******************************
       /RESON  / : Allow strongly delocalized NBO set

 Analyzing the SCF density

 Job title: Title Card Required                                             

 Storage needed:    365412 in NPA,    486058 in NBO ( 536867792 available)


 NATURAL POPULATIONS:  Natural atomic orbital occupancies 
                                                          
   NAO  Atom  No  lang   Type(AO)    Occupancy      Energy
 ----------------------------------------------------------
     1    H    1  S      Val( 1S)     0.50355       0.16477
     2    H    1  S      Ryd( 4S)     0.00174       1.56697
     3    H    1  S      Ryd( 3S)     0.00036       1.20780
     4    H    1  S      Ryd( 2S)     0.00021       0.37742
     5    H    1  px     Ryd( 2p)     0.00097       2.24028
     6    H    1  py     Ryd( 2p)     0.00093       2.04678
     7    H    1  pz     Ryd( 2p)     0.00133       1.91258

     8    O    2  S      Cor( 1S)     1.99975     -19.39828
     9    O    2  S      Val( 2S)     1.65848      -0.99260
    10    O    2  S      Ryd( 3S)     0.00105       1.32049
    11    O    2  S      Ryd( 4S)     0.00047       1.48855
    12    O    2  S      Ryd( 5S)     0.00000      49.78698
    13    O    2  px     Val( 2p)     1.73921      -0.36119
    14    O    2  px     Ryd( 3p)     0.00310       0.72567
    15    O    2  px     Ryd( 4p)     0.00020       0.99450
    16    O    2  px     Ryd( 5p)     0.00002       5.33235
    17    O    2  py     Val( 2p)     1.48555      -0.34374
    18    O    2  py     Ryd( 3p)     0.00201       0.64607
    19    O    2  py     Ryd( 4p)     0.00020       0.87438
    20    O    2  py     Ryd( 5p)     0.00005       5.34640
    21    O    2  pz     Val( 2p)     1.84302      -0.37338
    22    O    2  pz     Ryd( 3p)     0.00252       0.66688
    23    O    2  pz     Ryd( 4p)     0.00017       0.91335
    24    O    2  pz     Ryd( 5p)     0.00001       5.22005
    25    O    2  dxy    Ryd( 3d)     0.00076       3.26635
    26    O    2  dxz    Ryd( 3d)     0.00117       3.40107
    27    O    2  dyz    Ryd( 3d)     0.00071       3.18737
    28    O    2  dx2y2  Ryd( 3d)     0.00112       3.48757
    29    O    2  dz2    Ryd( 3d)     0.00082       3.19351

    30    C    3  S      Cor( 1S)     1.99911     -10.52858
    31    C    3  S      Val( 2S)     0.86542      -0.21419
    32    C    3  S      Ryd( 3S)     0.00313       1.10463
    33    C    3  S      Ryd( 4S)     0.00022       1.61277
    34    C    3  S      Ryd( 5S)     0.00002      22.66125
    35    C    3  px     Val( 2p)     0.95841      -0.10642
    36    C    3  px     Ryd( 4p)     0.00475       0.99713
    37    C    3  px     Ryd( 3p)     0.00076       0.49683
    38    C    3  px     Ryd( 5p)     0.00021       2.98346
    39    C    3  py     Val( 2p)     0.72632      -0.06366
    40    C    3  py     Ryd( 4p)     0.00897       0.98443
    41    C    3  py     Ryd( 3p)     0.00057       0.59942
    42    C    3  py     Ryd( 5p)     0.00018       2.99775
    43    C    3  pz     Val( 2p)     0.87560      -0.08431
    44    C    3  pz     Ryd( 4p)     0.00739       0.91400
    45    C    3  pz     Ryd( 3p)     0.00088       0.47698
    46    C    3  pz     Ryd( 5p)     0.00016       2.91556
    47    C    3  dxy    Ryd( 3d)     0.00256       2.01073
    48    C    3  dxz    Ryd( 3d)     0.00162       2.12854
    49    C    3  dyz    Ryd( 3d)     0.00312       1.95487
    50    C    3  dx2y2  Ryd( 3d)     0.00249       2.32237
    51    C    3  dz2    Ryd( 3d)     0.00170       2.15761

    52    O    4  S      Cor( 1S)     1.99975     -19.42052
    53    O    4  S      Val( 2S)     1.62098      -0.96212
    54    O    4  S      Ryd( 3S)     0.00397       0.84892
    55    O    4  S      Ryd( 4S)     0.00040       1.68458
    56    O    4  S      Ryd( 5S)     0.00000      49.80873
    57    O    4  px     Val( 2p)     1.68273      -0.35902
    58    O    4  px     Ryd( 3p)     0.00634       0.67704
    59    O    4  px     Ryd( 4p)     0.00088       1.10796
    60    O    4  px     Ryd( 5p)     0.00003       5.29283
    61    O    4  py     Val( 2p)     1.58955      -0.34636
    62    O    4  py     Ryd( 3p)     0.00330       0.65327
    63    O    4  py     Ryd( 4p)     0.00113       1.07082
    64    O    4  py     Ryd( 5p)     0.00003       5.27186
    65    O    4  pz     Val( 2p)     1.73218      -0.38304
    66    O    4  pz     Ryd( 3p)     0.00471       0.56558
    67    O    4  pz     Ryd( 4p)     0.00105       1.00031
    68    O    4  pz     Ryd( 5p)     0.00011       5.22217
    69    O    4  dxy    Ryd( 3d)     0.00044       3.39754
    70    O    4  dxz    Ryd( 3d)     0.00102       3.30093
    71    O    4  dyz    Ryd( 3d)     0.00101       3.29621
    72    O    4  dx2y2  Ryd( 3d)     0.00028       3.15795
    73    O    4  dz2    Ryd( 3d)     0.00103       3.16220

    74    C    5  S      Cor( 1S)     1.99913     -10.47789
    75    C    5  S      Val( 2S)     0.96114      -0.25019
    76    C    5  S      Ryd( 4S)     0.00285       1.15714
    77    C    5  S      Ryd( 3S)     0.00027       1.12988
    78    C    5  S      Ryd( 5S)     0.00001      23.19193
    79    C    5  px     Val( 2p)     0.96810      -0.10896
    80    C    5  px     Ryd( 4p)     0.00441       0.76202
    81    C    5  px     Ryd( 3p)     0.00046       0.48662
    82    C    5  px     Ryd( 5p)     0.00017       3.15365
    83    C    5  py     Val( 2p)     0.93802      -0.09103
    84    C    5  py     Ryd( 4p)     0.00724       0.82800
    85    C    5  py     Ryd( 3p)     0.00047       0.47359
    86    C    5  py     Ryd( 5p)     0.00014       3.17741
    87    C    5  pz     Val( 2p)     1.02341      -0.11253
    88    C    5  pz     Ryd( 4p)     0.00570       0.70815
    89    C    5  pz     Ryd( 3p)     0.00039       0.41468
    90    C    5  pz     Ryd( 5p)     0.00023       3.09555
    91    C    5  dxy    Ryd( 3d)     0.00167       2.10225
    92    C    5  dxz    Ryd( 3d)     0.00102       1.98008
    93    C    5  dyz    Ryd( 3d)     0.00146       2.04443
    94    C    5  dx2y2  Ryd( 3d)     0.00184       2.20891
    95    C    5  dz2    Ryd( 3d)     0.00098       2.25793

    96    H    6  S      Val( 1S)     0.80488       0.02763
    97    H    6  S      Ryd( 3S)     0.00128       0.88635
    98    H    6  S      Ryd( 4S)     0.00018       1.71073
    99    H    6  S      Ryd( 2S)     0.00013       0.59506
   100    H    6  px     Ryd( 2p)     0.00014       2.04366
   101    H    6  py     Ryd( 2p)     0.00034       2.54030
   102    H    6  pz     Ryd( 2p)     0.00023       2.04667

   103    C    7  S      Cor( 1S)     1.99916     -10.48118
   104    C    7  S      Val( 2S)     1.00676      -0.27682
   105    C    7  S      Ryd( 4S)     0.00398       0.95814
   106    C    7  S      Ryd( 3S)     0.00020       0.84593
   107    C    7  S      Ryd( 5S)     0.00001      23.13296
   108    C    7  px     Val( 2p)     1.03459      -0.12487
   109    C    7  px     Ryd( 4p)     0.00127       0.67495
   110    C    7  px     Ryd( 3p)     0.00042       0.39386
   111    C    7  px     Ryd( 5p)     0.00016       2.86094
   112    C    7  py     Val( 2p)     0.89954      -0.09846
   113    C    7  py     Ryd( 4p)     0.00361       0.70715
   114    C    7  py     Ryd( 3p)     0.00044       0.40553
   115    C    7  py     Ryd( 5p)     0.00020       2.90895
   116    C    7  pz     Val( 2p)     1.07511      -0.12044
   117    C    7  pz     Ryd( 4p)     0.00290       0.74967
   118    C    7  pz     Ryd( 3p)     0.00021       0.41894
   119    C    7  pz     Ryd( 5p)     0.00013       2.89297
   120    C    7  dxy    Ryd( 3d)     0.00127       2.09380
   121    C    7  dxz    Ryd( 3d)     0.00097       1.91157
   122    C    7  dyz    Ryd( 3d)     0.00138       2.03673
   123    C    7  dx2y2  Ryd( 3d)     0.00118       2.14610
   124    C    7  dz2    Ryd( 3d)     0.00146       2.25132

   125    H    8  S      Val( 1S)     0.82598       0.00060
   126    H    8  S      Ryd( 2S)     0.00103       0.62910
   127    H    8  S      Ryd( 4S)     0.00013       1.52252
   128    H    8  S      Ryd( 3S)     0.00009       0.94565
   129    H    8  px     Ryd( 2p)     0.00025       2.02777
   130    H    8  py     Ryd( 2p)     0.00028       2.43836
   131    H    8  pz     Ryd( 2p)     0.00011       1.92100

   132    H    9  S      Val( 1S)     0.81614       0.01314
   133    H    9  S      Ryd( 3S)     0.00118       0.70623
   134    H    9  S      Ryd( 4S)     0.00015       1.87862
   135    H    9  S      Ryd( 2S)     0.00006       0.46860
   136    H    9  px     Ryd( 2p)     0.00016       1.82308
   137    H    9  py     Ryd( 2p)     0.00008       1.87115
   138    H    9  pz     Ryd( 2p)     0.00037       2.71029

   139    O   10  S      Cor( 1S)     1.99978     -19.46297
   140    O   10  S      Val( 2S)     1.67388      -1.02768
   141    O   10  S      Ryd( 3S)     0.00171       0.90018
   142    O   10  S      Ryd( 4S)     0.00052       1.51976
   143    O   10  S      Ryd( 5S)     0.00000      49.68355
   144    O   10  px     Val( 2p)     1.55552      -0.37029
   145    O   10  px     Ryd( 3p)     0.00275       0.89084
   146    O   10  px     Ryd( 4p)     0.00027       1.01658
   147    O   10  px     Ryd( 5p)     0.00001       5.37047
   148    O   10  py     Val( 2p)     1.69173      -0.39760
   149    O   10  py     Ryd( 3p)     0.00196       0.65652
   150    O   10  py     Ryd( 4p)     0.00042       0.85423
   151    O   10  py     Ryd( 5p)     0.00002       5.18380
   152    O   10  pz     Val( 2p)     1.84371      -0.41453
   153    O   10  pz     Ryd( 3p)     0.00213       0.71015
   154    O   10  pz     Ryd( 4p)     0.00027       0.88263
   155    O   10  pz     Ryd( 5p)     0.00001       5.14007
   156    O   10  dxy    Ryd( 3d)     0.00052       3.18354
   157    O   10  dxz    Ryd( 3d)     0.00049       3.13296
   158    O   10  dyz    Ryd( 3d)     0.00075       3.26724
   159    O   10  dx2y2  Ryd( 3d)     0.00118       3.48652
   160    O   10  dz2    Ryd( 3d)     0.00070       3.17642

   161    H   11  S      Val( 1S)     0.51291       0.12567
   162    H   11  S      Ryd( 3S)     0.00066       1.33351
   163    H   11  S      Ryd( 4S)     0.00030       1.39911
   164    H   11  S      Ryd( 2S)     0.00011       0.34252
   165    H   11  px     Ryd( 2p)     0.00062       2.66169
   166    H   11  py     Ryd( 2p)     0.00120       1.70767
   167    H   11  pz     Ryd( 2p)     0.00128       1.69038

   168    C   12  S      Cor( 1S)     1.99908     -10.47076
   169    C   12  S      Val( 2S)     0.94369      -0.23554
   170    C   12  S      Ryd( 4S)     0.00290       1.13161
   171    C   12  S      Ryd( 3S)     0.00046       0.71701
   172    C   12  S      Ryd( 5S)     0.00001      23.41027
   173    C   12  px     Val( 2p)     1.02052      -0.10645
   174    C   12  px     Ryd( 4p)     0.00474       0.89420
   175    C   12  px     Ryd( 3p)     0.00055       0.39156
   176    C   12  px     Ryd( 5p)     0.00025       3.17902
   177    C   12  py     Val( 2p)     0.88038      -0.08447
   178    C   12  py     Ryd( 4p)     0.00732       0.75682
   179    C   12  py     Ryd( 3p)     0.00100       0.31592
   180    C   12  py     Ryd( 5p)     0.00021       3.10400
   181    C   12  pz     Val( 2p)     1.04633      -0.10760
   182    C   12  pz     Ryd( 4p)     0.00502       0.76776
   183    C   12  pz     Ryd( 3p)     0.00065       0.36145
   184    C   12  pz     Ryd( 5p)     0.00014       3.08245
   185    C   12  dxy    Ryd( 3d)     0.00133       2.21245
   186    C   12  dxz    Ryd( 3d)     0.00125       2.13122
   187    C   12  dyz    Ryd( 3d)     0.00106       1.91968
   188    C   12  dx2y2  Ryd( 3d)     0.00185       2.10677
   189    C   12  dz2    Ryd( 3d)     0.00107       2.24455

   190    H   13  S      Val( 1S)     0.79662       0.03784
   191    H   13  S      Ryd( 3S)     0.00135       0.88663
   192    H   13  S      Ryd( 2S)     0.00024       0.32620
   193    H   13  S      Ryd( 4S)     0.00014       2.02876
   194    H   13  px     Ryd( 2p)     0.00039       2.50385
   195    H   13  py     Ryd( 2p)     0.00013       1.96002
   196    H   13  pz     Ryd( 2p)     0.00021       2.18373

   197    O   14  S      Cor( 1S)     1.99980     -19.40056
   198    O   14  S      Val( 2S)     1.66352      -0.98054
   199    O   14  S      Ryd( 3S)     0.00086       0.99989
   200    O   14  S      Ryd( 4S)     0.00025       2.05745
   201    O   14  S      Ryd( 5S)     0.00000      49.81940
   202    O   14  px     Val( 2p)     1.52475      -0.31989
   203    O   14  px     Ryd( 3p)     0.00307       0.72693
   204    O   14  px     Ryd( 4p)     0.00012       0.93418
   205    O   14  px     Ryd( 5p)     0.00002       5.37327
   206    O   14  py     Val( 2p)     1.70494      -0.35593
   207    O   14  py     Ryd( 3p)     0.00272       0.64024
   208    O   14  py     Ryd( 4p)     0.00020       0.97062
   209    O   14  py     Ryd( 5p)     0.00003       5.22732
   210    O   14  pz     Val( 2p)     1.84798      -0.36874
   211    O   14  pz     Ryd( 3p)     0.00270       0.67618
   212    O   14  pz     Ryd( 4p)     0.00012       0.98097
   213    O   14  pz     Ryd( 5p)     0.00002       5.22049
   214    O   14  dxy    Ryd( 3d)     0.00080       3.37198
   215    O   14  dxz    Ryd( 3d)     0.00104       3.42114
   216    O   14  dyz    Ryd( 3d)     0.00112       3.17834
   217    O   14  dx2y2  Ryd( 3d)     0.00076       3.30240
   218    O   14  dz2    Ryd( 3d)     0.00083       3.15028

   219    H   15  S      Val( 1S)     0.50197       0.17781
   220    H   15  S      Ryd( 4S)     0.00143       1.59885
   221    H   15  S      Ryd( 3S)     0.00055       1.15395
   222    H   15  S      Ryd( 2S)     0.00017       0.65041
   223    H   15  px     Ryd( 2p)     0.00098       2.45560
   224    H   15  py     Ryd( 2p)     0.00112       1.82121
   225    H   15  pz     Ryd( 2p)     0.00115       1.97777

   226    C   16  S      Cor( 1S)     1.99900     -10.46488
   227    C   16  S      Val( 2S)     0.95212      -0.23738
   228    C   16  S      Ryd( 4S)     0.00279       1.16986
   229    C   16  S      Ryd( 3S)     0.00048       0.78423
   230    C   16  S      Ryd( 5S)     0.00001      23.36791
   231    C   16  px     Val( 2p)     0.95376      -0.09721
   232    C   16  px     Ryd( 4p)     0.00506       0.89421
   233    C   16  px     Ryd( 3p)     0.00061       0.40207
   234    C   16  px     Ryd( 5p)     0.00023       3.17497
   235    C   16  py     Val( 2p)     0.89981      -0.08870
   236    C   16  py     Ryd( 4p)     0.00641       0.79472
   237    C   16  py     Ryd( 3p)     0.00065       0.32893
   238    C   16  py     Ryd( 5p)     0.00023       3.05705
   239    C   16  pz     Val( 2p)     1.09723      -0.11317
   240    C   16  pz     Ryd( 4p)     0.00619       0.80342
   241    C   16  pz     Ryd( 3p)     0.00065       0.37127
   242    C   16  pz     Ryd( 5p)     0.00009       3.12577
   243    C   16  dxy    Ryd( 3d)     0.00132       2.21369
   244    C   16  dxz    Ryd( 3d)     0.00157       2.28388
   245    C   16  dyz    Ryd( 3d)     0.00097       1.95234
   246    C   16  dx2y2  Ryd( 3d)     0.00152       2.02120
   247    C   16  dz2    Ryd( 3d)     0.00100       2.12793

   248    H   17  S      Val( 1S)     0.79111       0.04391
   249    H   17  S      Ryd( 3S)     0.00112       0.88758
   250    H   17  S      Ryd( 2S)     0.00022       0.22248
   251    H   17  S      Ryd( 4S)     0.00011       2.13755
   252    H   17  px     Ryd( 2p)     0.00027       2.26189
   253    H   17  py     Ryd( 2p)     0.00015       1.93947
   254    H   17  pz     Ryd( 2p)     0.00031       2.42656

   255    O   18  S      Cor( 1S)     1.99980     -19.41286
   256    O   18  S      Val( 2S)     1.66559      -0.99504
   257    O   18  S      Ryd( 3S)     0.00079       1.09719
   258    O   18  S      Ryd( 4S)     0.00032       2.07788
   259    O   18  S      Ryd( 5S)     0.00000      49.82813
   260    O   18  px     Val( 2p)     1.49663      -0.33048
   261    O   18  px     Ryd( 3p)     0.00348       0.69981
   262    O   18  px     Ryd( 4p)     0.00018       0.94900
   263    O   18  px     Ryd( 5p)     0.00002       5.37152
   264    O   18  py     Val( 2p)     1.74905      -0.37362
   265    O   18  py     Ryd( 3p)     0.00281       0.64344
   266    O   18  py     Ryd( 4p)     0.00015       0.98491
   267    O   18  py     Ryd( 5p)     0.00003       5.21770
   268    O   18  pz     Val( 2p)     1.84716      -0.38179
   269    O   18  pz     Ryd( 3p)     0.00304       0.65014
   270    O   18  pz     Ryd( 4p)     0.00015       1.01539
   271    O   18  pz     Ryd( 5p)     0.00002       5.22909
   272    O   18  dxy    Ryd( 3d)     0.00081       3.38619
   273    O   18  dxz    Ryd( 3d)     0.00104       3.40302
   274    O   18  dyz    Ryd( 3d)     0.00115       3.17698
   275    O   18  dx2y2  Ryd( 3d)     0.00062       3.26105
   276    O   18  dz2    Ryd( 3d)     0.00083       3.13881

   277    H   19  S      Val( 1S)     0.49021       0.17673
   278    H   19  S      Ryd( 4S)     0.00148       1.91518
   279    H   19  S      Ryd( 2S)     0.00052       0.69560
   280    H   19  S      Ryd( 3S)     0.00015       0.85803
   281    H   19  px     Ryd( 2p)     0.00092       2.49936
   282    H   19  py     Ryd( 2p)     0.00100       1.84721
   283    H   19  pz     Ryd( 2p)     0.00113       2.01211

   284    C   20  S      Cor( 1S)     1.99909     -10.46541
   285    C   20  S      Val( 2S)     1.01000      -0.26433
   286    C   20  S      Ryd( 4S)     0.00424       0.98693
   287    C   20  S      Ryd( 3S)     0.00027       0.72857
   288    C   20  S      Ryd( 5S)     0.00001      23.29005
   289    C   20  px     Val( 2p)     1.07849      -0.11401
   290    C   20  px     Ryd( 4p)     0.00209       0.67951
   291    C   20  px     Ryd( 3p)     0.00021       0.28635
   292    C   20  px     Ryd( 5p)     0.00019       2.99222
   293    C   20  py     Val( 2p)     0.73742      -0.06871
   294    C   20  py     Ryd( 4p)     0.00725       0.72038
   295    C   20  py     Ryd( 3p)     0.00086       0.31399
   296    C   20  py     Ryd( 5p)     0.00022       3.06107
   297    C   20  pz     Val( 2p)     1.20030      -0.12548
   298    C   20  pz     Ryd( 4p)     0.00382       0.83109
   299    C   20  pz     Ryd( 3p)     0.00025       0.34321
   300    C   20  pz     Ryd( 5p)     0.00005       3.07058
   301    C   20  dxy    Ryd( 3d)     0.00150       2.00230
   302    C   20  dxz    Ryd( 3d)     0.00084       2.12421
   303    C   20  dyz    Ryd( 3d)     0.00115       2.02396
   304    C   20  dx2y2  Ryd( 3d)     0.00182       2.24858
   305    C   20  dz2    Ryd( 3d)     0.00107       2.13985

   306    H   21  S      Val( 1S)     0.80942       0.02586
   307    H   21  S      Ryd( 3S)     0.00118       0.92177
   308    H   21  S      Ryd( 4S)     0.00016       1.77300
   309    H   21  S      Ryd( 2S)     0.00010       0.43750
   310    H   21  px     Ryd( 2p)     0.00022       2.01602
   311    H   21  py     Ryd( 2p)     0.00013       2.06997
   312    H   21  pz     Ryd( 2p)     0.00023       2.43332

   313    H   22  S      Val( 1S)     0.80656       0.02628
   314    H   22  S      Ryd( 3S)     0.00094       0.72748
   315    H   22  S      Ryd( 2S)     0.00014       0.21405
   316    H   22  S      Ryd( 4S)     0.00014       2.23522
   317    H   22  px     Ryd( 2p)     0.00023       2.14394
   318    H   22  py     Ryd( 2p)     0.00011       1.95678
   319    H   22  pz     Ryd( 2p)     0.00025       2.39388

   320    O   23  S      Cor( 1S)     1.99980     -19.44881
   321    O   23  S      Val( 2S)     1.67668      -1.02084
   322    O   23  S      Ryd( 3S)     0.00155       0.95772
   323    O   23  S      Ryd( 4S)     0.00059       1.67408
   324    O   23  S      Ryd( 5S)     0.00000      49.73575
   325    O   23  px     Val( 2p)     1.92737      -0.40971
   326    O   23  px     Ryd( 3p)     0.00314       0.83312
   327    O   23  px     Ryd( 4p)     0.00027       0.87574
   328    O   23  px     Ryd( 5p)     0.00001       5.18834
   329    O   23  py     Val( 2p)     1.51025      -0.36424
   330    O   23  py     Ryd( 3p)     0.00187       0.74760
   331    O   23  py     Ryd( 4p)     0.00031       0.77555
   332    O   23  py     Ryd( 5p)     0.00002       5.28989
   333    O   23  pz     Val( 2p)     1.63534      -0.37069
   334    O   23  pz     Ryd( 3p)     0.00207       0.77261
   335    O   23  pz     Ryd( 4p)     0.00022       0.80084
   336    O   23  pz     Ryd( 5p)     0.00002       5.37227
   337    O   23  dxy    Ryd( 3d)     0.00051       3.06854
   338    O   23  dxz    Ryd( 3d)     0.00075       3.16336
   339    O   23  dyz    Ryd( 3d)     0.00062       3.21573
   340    O   23  dx2y2  Ryd( 3d)     0.00081       3.39665
   341    O   23  dz2    Ryd( 3d)     0.00129       3.45816

   342    H   24  S      Val( 1S)     0.51844       0.13221
   343    H   24  S      Ryd( 4S)     0.00068       2.22247
   344    H   24  S      Ryd( 3S)     0.00040       0.52404
   345    H   24  S      Ryd( 2S)     0.00029       0.35048
   346    H   24  px     Ryd( 2p)     0.00143       1.73970
   347    H   24  py     Ryd( 2p)     0.00098       1.86899
   348    H   24  pz     Ryd( 2p)     0.00070       2.56099

 WARNING:  Population inversion found on atom  H    1
           Population inversion found on atom  C    3
           Population inversion found on atom  C    5
           Population inversion found on atom  H    6
           Population inversion found on atom  C    7
           Population inversion found on atom  H    8
           Population inversion found on atom  H    9
           Population inversion found on atom  H   11
           Population inversion found on atom  C   12
           Population inversion found on atom  H   13
           Population inversion found on atom  H   15
           Population inversion found on atom  C   16
           Population inversion found on atom  H   17
           Population inversion found on atom  H   19
           Population inversion found on atom  C   20
           Population inversion found on atom  H   21
           Population inversion found on atom  H   22
           Population inversion found on atom  H   24


 Summary of Natural Population Analysis:                  
                                                          
                                       Natural Population 
                Natural  -----------------------------------------------
    Atom  No    Charge         Core      Valence    Rydberg      Total
 -----------------------------------------------------------------------
      H    1    0.49090      0.00000     0.50355    0.00554     0.50910
      O    2   -0.74042      1.99975     6.72626    0.01440     8.74042
      C    3    0.53641      1.99911     3.42575    0.03873     5.46359
      O    4   -0.65091      1.99975     6.62544    0.02572     8.65091
      C    5    0.08088      1.99913     3.89067    0.02932     5.91912
      H    6    0.19283      0.00000     0.80488    0.00229     0.80717
      C    7   -0.03495      1.99916     4.01601    0.01978     6.03495
      H    8    0.17212      0.00000     0.82598    0.00189     0.82788
      H    9    0.18185      0.00000     0.81614    0.00201     0.81815
      O   10   -0.77837      1.99978     6.76484    0.01374     8.77837
      H   11    0.48293      0.00000     0.51291    0.00417     0.51707
      C   12    0.08020      1.99908     3.89092    0.02981     5.91980
      H   13    0.20092      0.00000     0.79662    0.00246     0.79908
      O   14   -0.75565      1.99980     6.74118    0.01467     8.75565
      H   15    0.49264      0.00000     0.50197    0.00540     0.50736
      C   16    0.06830      1.99900     3.90292    0.02978     5.93170
      H   17    0.20673      0.00000     0.79111    0.00216     0.79327
      O   18   -0.77366      1.99980     6.75843    0.01544     8.77366
      H   19    0.50460      0.00000     0.49021    0.00519     0.49540
      C   20   -0.05113      1.99909     4.02622    0.02583     6.05113
      H   21    0.18857      0.00000     0.80942    0.00201     0.81143
      H   22    0.19161      0.00000     0.80656    0.00183     0.80839
      O   23   -0.76349      1.99980     6.74964    0.01405     8.76349
      H   24    0.47708      0.00000     0.51844    0.00448     0.52292
 =======================================================================
   * Total *    0.00000     23.99324    71.69607    0.31068    96.00000

                                 Natural Population      
 --------------------------------------------------------
   Core                      23.99324 ( 99.9719% of  24)
   Valence                   71.69607 ( 99.5779% of  72)
   Natural Minimal Basis     95.68932 ( 99.6764% of  96)
   Natural Rydberg Basis      0.31068 (  0.3236% of  96)
 --------------------------------------------------------

    Atom  No          Natural Electron Configuration
 ----------------------------------------------------------------------------
      H    1            1S( 0.50)
      O    2      [core]2S( 1.66)2p( 5.07)3p( 0.01)
      C    3      [core]2S( 0.87)2p( 2.56)3d( 0.01)4p( 0.02)
      O    4      [core]2S( 1.62)2p( 5.00)3p( 0.01)
      C    5      [core]2S( 0.96)2p( 2.93)3d( 0.01)4p( 0.02)
      H    6            1S( 0.80)
      C    7      [core]2S( 1.01)2p( 3.01)3d( 0.01)4p( 0.01)
      H    8            1S( 0.83)
      H    9            1S( 0.82)
      O   10      [core]2S( 1.67)2p( 5.09)3p( 0.01)
      H   11            1S( 0.51)
      C   12      [core]2S( 0.94)2p( 2.95)3d( 0.01)4p( 0.02)
      H   13            1S( 0.80)
      O   14      [core]2S( 1.66)2p( 5.08)3p( 0.01)
      H   15            1S( 0.50)
      C   16      [core]2S( 0.95)2p( 2.95)3d( 0.01)4p( 0.02)
      H   17            1S( 0.79)
      O   18      [core]2S( 1.67)2p( 5.09)3p( 0.01)
      H   19            1S( 0.49)
      C   20      [core]2S( 1.01)2p( 3.02)3d( 0.01)4p( 0.01)
      H   21            1S( 0.81)
      H   22            1S( 0.81)
      O   23      [core]2S( 1.68)2p( 5.07)3p( 0.01)
      H   24            1S( 0.52)


 NATURAL BOND ORBITAL ANALYSIS:

                       Occupancies       Lewis Structure    Low   High
           Occ.    -------------------  -----------------   occ   occ
  Cycle   Thresh.   Lewis   Non-Lewis     CR  BD  3C  LP    (L)   (NL)   Dev
 =============================================================================
   1(1)    1.90    95.11863   0.88137     12  24   0  12     0      0    0.05
 -----------------------------------------------------------------------------

 Structure accepted: No low occupancy Lewis orbitals

 --------------------------------------------------------
   Core                     23.99326 ( 99.972% of  24)
   Valence Lewis            71.12537 ( 98.785% of  72)
  ==================       ============================
   Total Lewis              95.11863 ( 99.082% of  96)
  -----------------------------------------------------
   Valence non-Lewis         0.67838 (  0.707% of  96)
   Rydberg non-Lewis         0.20299 (  0.211% of  96)
  ==================       ============================
   Total non-Lewis           0.88137 (  0.918% of  96)
 --------------------------------------------------------


       (Occupancy)   Bond orbital/ Coefficients/ Hybrids
 ---------------------------------------------------------------------------------
     1. (1.98580) BD ( 1) H   1 - O   2  
                ( 24.61%)   0.4961* H   1 s( 99.83%)p 0.00(  0.17%)
                                            0.9991  0.0089 -0.0006  0.0011  0.0301
                                           -0.0170 -0.0217
                ( 75.39%)   0.8682* O   2 s( 22.11%)p 3.52( 77.79%)d 0.00(  0.10%)
                                           -0.0002  0.4701  0.0065  0.0040 -0.0003
                                           -0.6701  0.0083 -0.0010  0.0016  0.3799
                                           -0.0297  0.0051  0.0007  0.4285 -0.0068
                                           -0.0009 -0.0014 -0.0049 -0.0253  0.0037
                                            0.0171 -0.0006
     2. (1.99066) BD ( 1) O   2 - C   3  
                ( 66.47%)   0.8153* O   2 s( 33.14%)p 2.02( 66.79%)d 0.00(  0.08%)
                                           -0.0001 -0.5755 -0.0077  0.0112  0.0000
                                           -0.0113  0.0014 -0.0019 -0.0022  0.8101
                                           -0.0112 -0.0065  0.0002 -0.1060 -0.0034
                                            0.0040  0.0014 -0.0072  0.0044  0.0115
                                            0.0206  0.0118
                ( 33.53%)   0.5791* C   3 s( 22.47%)p 3.44( 77.31%)d 0.01(  0.22%)
                                            0.0002 -0.4730 -0.0309 -0.0001  0.0011
                                            0.0441  0.0000  0.0006  0.0033 -0.8685
                                            0.0279  0.0057  0.0063  0.1243 -0.0227
                                            0.0001 -0.0028  0.0034  0.0011  0.0099
                                            0.0406  0.0219
     3. (1.98909) BD ( 1) C   3 - O   4  
                ( 31.14%)   0.5581* C   3 s( 19.99%)p 3.99( 79.74%)d 0.01(  0.27%)
                                            0.0000  0.4470  0.0062  0.0022 -0.0009
                                           -0.5037  0.0081  0.0015  0.0027 -0.3615
                                           -0.0188  0.0043  0.0010 -0.6410  0.0409
                                           -0.0022  0.0049  0.0233  0.0345  0.0280
                                            0.0069  0.0117
                ( 68.86%)   0.8298* O   4 s( 30.32%)p 2.30( 69.62%)d 0.00(  0.06%)
                                           -0.0001  0.5506 -0.0094  0.0010 -0.0001
                                            0.4864 -0.0097 -0.0049  0.0007  0.3711
                                           -0.0202  0.0002  0.0013  0.5669  0.0006
                                           -0.0072 -0.0025  0.0062  0.0170  0.0083
                                            0.0031  0.0142
     4. (1.97793) BD ( 1) C   3 - C  16  
                ( 50.56%)   0.7111* C   3 s( 28.53%)p 2.50( 71.43%)d 0.00(  0.04%)
                                            0.0003  0.5338 -0.0206 -0.0009  0.0000
                                           -0.3356 -0.0159  0.0051 -0.0001 -0.2004
                                           -0.0244  0.0095 -0.0020  0.7487  0.0027
                                            0.0001  0.0038  0.0015 -0.0151 -0.0068
                                            0.0030  0.0098
                ( 49.44%)   0.7031* C  16 s( 25.99%)p 2.85( 73.96%)d 0.00(  0.05%)
                                            0.0002  0.5098 -0.0095  0.0000  0.0002
                                            0.3874 -0.0048 -0.0025  0.0009  0.2695
                                           -0.0199  0.0038 -0.0009 -0.7185 -0.0135
                                            0.0052  0.0007  0.0041 -0.0113 -0.0090
                                           -0.0010  0.0157
     5. (1.97989) BD ( 1) C   3 - C  20  
                ( 50.85%)   0.7131* C   3 s( 28.82%)p 2.47( 71.14%)d 0.00(  0.04%)
                                            0.0000  0.5368  0.0001  0.0001  0.0006
                                            0.7938  0.0058 -0.0039  0.0033 -0.2665
                                           -0.0184  0.0050 -0.0033 -0.0989  0.0047
                                           -0.0033  0.0007 -0.0098 -0.0062 -0.0005
                                            0.0140 -0.0081
                ( 49.15%)   0.7011* C  20 s( 29.59%)p 2.38( 70.37%)d 0.00(  0.04%)
                                            0.0004  0.5439  0.0064 -0.0025  0.0003
                                           -0.8062 -0.0003  0.0066  0.0011  0.2032
                                           -0.0138 -0.0048 -0.0009  0.1101  0.0086
                                           -0.0029  0.0005 -0.0063 -0.0035  0.0001
                                            0.0159 -0.0090
     6. (1.98697) BD ( 1) O   4 - C   5  
                ( 67.57%)   0.8220* O   4 s( 29.12%)p 2.43( 70.81%)d 0.00(  0.06%)
                                           -0.0001  0.5392 -0.0224  0.0028 -0.0001
                                           -0.4312  0.0103  0.0028 -0.0012 -0.6647
                                            0.0191  0.0023  0.0001  0.2822  0.0117
                                           -0.0081 -0.0021  0.0127 -0.0090 -0.0180
                                           -0.0077  0.0006
                ( 32.43%)   0.5695* C   5 s( 20.04%)p 3.98( 79.70%)d 0.01(  0.26%)
                                           -0.0001  0.4468  0.0262  0.0024 -0.0006
                                            0.4698 -0.0169 -0.0014 -0.0005  0.6800
                                           -0.0143  0.0000 -0.0047 -0.3330  0.0495
                                           -0.0040  0.0008  0.0367 -0.0158 -0.0243
                                           -0.0139 -0.0155
     7. (1.97444) BD ( 1) C   5 - H   6  
                ( 60.03%)   0.7748* C   5 s( 23.71%)p 3.22( 76.23%)d 0.00(  0.06%)
                                           -0.0002  0.4866 -0.0153  0.0051 -0.0001
                                            0.3024 -0.0011  0.0067 -0.0016 -0.7190
                                           -0.0245 -0.0036 -0.0038 -0.3913 -0.0050
                                           -0.0031 -0.0010 -0.0133 -0.0047  0.0168
                                           -0.0124 -0.0027
                ( 39.97%)   0.6322* H   6 s( 99.96%)p 0.00(  0.04%)
                                            0.9998  0.0027 -0.0006  0.0005 -0.0063
                                            0.0171  0.0064
     8. (1.98106) BD ( 1) C   5 - C   7  
                ( 50.11%)   0.7079* C   5 s( 28.37%)p 2.52( 71.59%)d 0.00(  0.04%)
                                           -0.0001 -0.5324 -0.0161  0.0025 -0.0004
                                            0.8155 -0.0047 -0.0066  0.0009 -0.1196
                                           -0.0089 -0.0031 -0.0009  0.1896 -0.0189
                                            0.0008 -0.0007  0.0066 -0.0064  0.0009
                                           -0.0153  0.0082
                ( 49.89%)   0.7064* C   7 s( 30.14%)p 2.32( 69.83%)d 0.00(  0.03%)
                                           -0.0003 -0.5488 -0.0151  0.0032 -0.0002
                                           -0.8082 -0.0005  0.0095 -0.0016  0.0818
                                           -0.0039 -0.0073  0.0017 -0.1950 -0.0129
                                            0.0011  0.0007  0.0012 -0.0093 -0.0005
                                           -0.0136  0.0067
     9. (1.98004) BD ( 1) C   5 - C  12  
                ( 50.92%)   0.7136* C   5 s( 27.89%)p 2.58( 72.08%)d 0.00(  0.03%)
                                            0.0003  0.5279 -0.0116 -0.0036 -0.0002
                                            0.1453  0.0012 -0.0052 -0.0005 -0.0371
                                            0.0351 -0.0045  0.0001  0.8349  0.0058
                                           -0.0050  0.0010 -0.0009  0.0066  0.0014
                                            0.0022  0.0165
                ( 49.08%)   0.7006* C  12 s( 26.50%)p 2.77( 73.46%)d 0.00(  0.04%)
                                            0.0002  0.5148 -0.0067 -0.0019  0.0001
                                           -0.1738  0.0074  0.0031 -0.0006 -0.0302
                                            0.0259 -0.0055 -0.0010 -0.8382 -0.0036
                                            0.0034  0.0000  0.0005  0.0038 -0.0027
                                            0.0003  0.0195
    10. (1.98267) BD ( 1) C   7 - H   8  
                ( 58.94%)   0.7677* C   7 s( 24.22%)p 3.13( 75.71%)d 0.00(  0.07%)
                                           -0.0001  0.4916 -0.0223  0.0016  0.0001
                                           -0.4614  0.0005 -0.0012  0.0001 -0.6982
                                           -0.0100 -0.0026 -0.0013  0.2378  0.0124
                                            0.0044 -0.0004  0.0183 -0.0067 -0.0125
                                           -0.0079 -0.0095
                ( 41.06%)   0.6408* H   8 s( 99.96%)p 0.00(  0.04%)
                                            0.9998  0.0023 -0.0002 -0.0003  0.0086
                                            0.0166 -0.0048
    11. (1.98536) BD ( 1) C   7 - H   9  
                ( 59.55%)   0.7717* C   7 s( 24.74%)p 3.04( 75.19%)d 0.00(  0.07%)
                                            0.0001 -0.4970  0.0195 -0.0010 -0.0001
                                            0.1182 -0.0025  0.0004  0.0013 -0.1395
                                           -0.0038 -0.0042  0.0026  0.8474  0.0165
                                            0.0024  0.0023 -0.0005 -0.0055  0.0090
                                           -0.0007 -0.0234
                ( 40.45%)   0.6360* H   9 s( 99.97%)p 0.00(  0.03%)
                                           -0.9998 -0.0030  0.0000  0.0000  0.0008
                                            0.0030 -0.0184
    12. (1.99499) BD ( 1) C   7 - O  10  
                ( 32.22%)   0.5676* C   7 s( 21.21%)p 3.70( 78.52%)d 0.01(  0.28%)
                                            0.0000  0.4574  0.0535  0.0019 -0.0009
                                           -0.3439  0.0276 -0.0002 -0.0003  0.6930
                                           -0.0411 -0.0011 -0.0046  0.4286 -0.0195
                                            0.0002 -0.0033 -0.0273 -0.0173  0.0356
                                           -0.0195 -0.0080
                ( 67.78%)   0.8233* O  10 s( 30.99%)p 2.23( 68.95%)d 0.00(  0.06%)
                                            0.0000  0.5562  0.0202 -0.0069  0.0000
                                            0.2616 -0.0063  0.0000  0.0022 -0.6620
                                            0.0103  0.0086  0.0016 -0.4272  0.0050
                                            0.0053  0.0015 -0.0034 -0.0007  0.0214
                                           -0.0126 -0.0018
    13. (1.98997) BD ( 1) O  10 - H  11  
                ( 74.41%)   0.8626* O  10 s( 21.69%)p 3.61( 78.22%)d 0.00(  0.09%)
                                            0.0001 -0.4655  0.0010 -0.0120  0.0001
                                            0.8675 -0.0166  0.0068  0.0002 -0.1224
                                            0.0230 -0.0044 -0.0011  0.1163  0.0149
                                           -0.0029 -0.0006 -0.0033 -0.0133 -0.0023
                                           -0.0237  0.0121
                ( 25.59%)   0.5059* H  11 s( 99.90%)p 0.00(  0.10%)
                                           -0.9995  0.0001 -0.0019  0.0001 -0.0310
                                            0.0076 -0.0032
    14. (1.97730) BD ( 1) C  12 - H  13  
                ( 60.43%)   0.7774* C  12 s( 24.23%)p 3.12( 75.71%)d 0.00(  0.06%)
                                            0.0002 -0.4920  0.0146 -0.0051  0.0000
                                            0.7267  0.0347  0.0050  0.0056  0.1342
                                           -0.0126  0.0016 -0.0004 -0.4578 -0.0024
                                           -0.0041 -0.0024 -0.0065  0.0179  0.0021
                                           -0.0143  0.0012
                ( 39.57%)   0.6290* H  13 s( 99.97%)p 0.00(  0.03%)
                                           -0.9998 -0.0031  0.0005 -0.0007 -0.0154
                                           -0.0012  0.0104
    15. (1.99116) BD ( 1) C  12 - O  14  
                ( 34.51%)   0.5875* C  12 s( 22.08%)p 3.52( 77.74%)d 0.01(  0.18%)
                                            0.0001 -0.4678 -0.0445 -0.0006  0.0007
                                           -0.5595  0.0014  0.0108  0.0065  0.6495
                                           -0.0511 -0.0049 -0.0064 -0.1956  0.0381
                                           -0.0012  0.0032  0.0345 -0.0082  0.0104
                                            0.0008  0.0199
                ( 65.49%)   0.8092* O  14 s( 30.48%)p 2.28( 69.43%)d 0.00(  0.09%)
                                            0.0000 -0.5518 -0.0180  0.0007 -0.0001
                                            0.5126 -0.0146  0.0005  0.0015 -0.6229
                                            0.0034  0.0086  0.0003  0.2078  0.0036
                                           -0.0064 -0.0013  0.0175 -0.0058  0.0183
                                            0.0108  0.0086
    16. (1.97533) BD ( 1) C  12 - C  16  
                ( 49.81%)   0.7057* C  12 s( 27.05%)p 2.69( 72.91%)d 0.00(  0.04%)
                                            0.0002  0.5201 -0.0039 -0.0041  0.0001
                                            0.3522  0.0111 -0.0002  0.0012  0.7454
                                            0.0023 -0.0055  0.0002  0.2197 -0.0318
                                            0.0038  0.0016  0.0134  0.0002  0.0023
                                           -0.0109 -0.0083
                ( 50.19%)   0.7085* C  16 s( 27.64%)p 2.62( 72.32%)d 0.00(  0.04%)
                                            0.0001  0.5257 -0.0007 -0.0037  0.0001
                                           -0.3594 -0.0085 -0.0009 -0.0015 -0.7624
                                            0.0114  0.0030 -0.0005 -0.1065 -0.0344
                                            0.0080  0.0009  0.0124  0.0040  0.0085
                                           -0.0089 -0.0061
    17. (1.98769) BD ( 1) O  14 - H  15  
                ( 75.70%)   0.8701* O  14 s( 23.79%)p 3.20( 76.11%)d 0.00(  0.10%)
                                           -0.0001  0.4878  0.0043  0.0019 -0.0003
                                            0.7580 -0.0342  0.0002 -0.0004  0.0505
                                            0.0203 -0.0026 -0.0018 -0.4270  0.0023
                                            0.0013  0.0016  0.0107 -0.0247 -0.0115
                                            0.0118  0.0008
                ( 24.30%)   0.4929* H  15 s( 99.82%)p 0.00(  0.18%)
                                            0.9991  0.0070  0.0008  0.0013 -0.0369
                                           -0.0018  0.0198
    18. (1.97678) BD ( 1) C  16 - H  17  
                ( 60.66%)   0.7789* C  16 s( 25.13%)p 2.98( 74.81%)d 0.00(  0.06%)
                                           -0.0003  0.5012 -0.0116  0.0061  0.0001
                                            0.5638  0.0320  0.0041  0.0044 -0.0124
                                           -0.0100  0.0005 -0.0002  0.6549  0.0048
                                            0.0051  0.0035  0.0015  0.0203 -0.0001
                                            0.0079  0.0090
                ( 39.34%)   0.6272* H  17 s( 99.97%)p 0.00(  0.03%)
                                            0.9998  0.0026  0.0008  0.0004 -0.0116
                                            0.0021 -0.0145
    19. (1.99059) BD ( 1) C  16 - O  18  
                ( 33.83%)   0.5816* C  16 s( 21.11%)p 3.73( 78.69%)d 0.01(  0.20%)
                                           -0.0002  0.4576  0.0413 -0.0031 -0.0009
                                           -0.6310  0.0113  0.0090  0.0060  0.5855
                                           -0.0360 -0.0050 -0.0049  0.2046 -0.0492
                                            0.0026 -0.0018 -0.0369 -0.0081  0.0091
                                            0.0057 -0.0207
                ( 66.17%)   0.8135* O  18 s( 30.61%)p 2.26( 69.31%)d 0.00(  0.08%)
                                            0.0000  0.5530  0.0164 -0.0007  0.0001
                                            0.5852 -0.0129  0.0010  0.0013 -0.5579
                                            0.0042  0.0051  0.0014 -0.1975 -0.0107
                                            0.0061  0.0012 -0.0190 -0.0085  0.0170
                                           -0.0052 -0.0079
    20. (1.98777) BD ( 1) O  18 - H  19  
                ( 76.34%)   0.8738* O  18 s( 24.58%)p 3.06( 75.32%)d 0.00(  0.10%)
                                            0.0001 -0.4958 -0.0030 -0.0024  0.0003
                                            0.7402 -0.0363  0.0019 -0.0005  0.1335
                                            0.0145 -0.0038 -0.0018  0.4313  0.0001
                                            0.0000 -0.0018 -0.0119 -0.0235 -0.0136
                                           -0.0091 -0.0020
                ( 23.66%)   0.4864* H  19 s( 99.82%)p 0.00(  0.18%)
                                           -0.9991 -0.0062 -0.0001 -0.0007 -0.0361
                                           -0.0072 -0.0199
    21. (1.98579) BD ( 1) C  20 - H  21  
                ( 59.79%)   0.7732* C  20 s( 24.85%)p 3.02( 75.08%)d 0.00(  0.06%)
                                           -0.0001  0.4982 -0.0182  0.0005 -0.0002
                                            0.3306 -0.0081  0.0008  0.0016  0.3664
                                            0.0049 -0.0016  0.0005 -0.7118 -0.0220
                                           -0.0037 -0.0020  0.0056 -0.0120 -0.0147
                                            0.0000  0.0156
                ( 40.21%)   0.6341* H  21 s( 99.97%)p 0.00(  0.03%)
                                            0.9998  0.0022  0.0002 -0.0002 -0.0060
                                           -0.0103  0.0134
    22. (1.97992) BD ( 1) C  20 - H  22  
                ( 59.74%)   0.7729* C  20 s( 24.59%)p 3.06( 75.34%)d 0.00(  0.06%)
                                           -0.0002  0.4957 -0.0132  0.0036  0.0002
                                            0.4838 -0.0082  0.0007  0.0015  0.2215
                                            0.0067 -0.0047  0.0023  0.6853  0.0223
                                            0.0042  0.0021  0.0047  0.0188  0.0068
                                            0.0064  0.0135
                ( 40.26%)   0.6345* H  22 s( 99.97%)p 0.00(  0.03%)
                                            0.9998  0.0016  0.0004  0.0002 -0.0107
                                           -0.0070 -0.0134
    23. (1.99423) BD ( 1) C  20 - O  23  
                ( 32.37%)   0.5690* C  20 s( 21.16%)p 3.71( 78.57%)d 0.01(  0.28%)
                                           -0.0001  0.4570  0.0522 -0.0022 -0.0007
                                            0.0732 -0.0319  0.0047 -0.0023 -0.8755
                                            0.0548  0.0031  0.0062 -0.0980 -0.0065
                                            0.0008 -0.0019 -0.0033 -0.0023  0.0115
                                           -0.0446 -0.0250
                ( 67.63%)   0.8224* O  23 s( 31.33%)p 2.19( 68.60%)d 0.00(  0.07%)
                                            0.0000  0.5593  0.0209 -0.0048  0.0001
                                           -0.0564 -0.0084  0.0066  0.0005  0.8238
                                           -0.0100 -0.0072 -0.0007  0.0620 -0.0062
                                            0.0056  0.0022 -0.0081  0.0018 -0.0063
                                           -0.0211 -0.0100
    24. (1.98962) BD ( 1) O  23 - H  24  
                ( 74.18%)   0.8613* O  23 s( 21.23%)p 3.71( 78.68%)d 0.00(  0.10%)
                                            0.0001 -0.4606 -0.0042 -0.0086  0.0002
                                            0.2349 -0.0048  0.0006 -0.0006  0.2669
                                           -0.0260  0.0048  0.0009  0.8119 -0.0212
                                            0.0059 -0.0014 -0.0011 -0.0170 -0.0021
                                           -0.0019 -0.0258
                ( 25.82%)   0.5082* H  24 s( 99.88%)p 0.00(  0.12%)
                                           -0.9994 -0.0024  0.0017 -0.0002 -0.0097
                                           -0.0116 -0.0318
    25. (1.99975) CR ( 1) O   2           s(100.00%)p 0.00(  0.00%)
                                            1.0000  0.0002  0.0000  0.0000  0.0000
                                           -0.0001  0.0000  0.0000  0.0000  0.0002
                                            0.0000  0.0000  0.0000  0.0001  0.0000
                                            0.0000  0.0000  0.0000  0.0000  0.0000
                                            0.0000  0.0000
    26. (1.99912) CR ( 1) C   3           s(100.00%)p 0.00(  0.00%)
                                            1.0000  0.0000  0.0000  0.0000  0.0000
                                            0.0001  0.0000  0.0000  0.0000  0.0002
                                            0.0000  0.0000  0.0000 -0.0003  0.0000
                                            0.0000  0.0000  0.0000  0.0000  0.0000
                                            0.0000  0.0000
    27. (1.99975) CR ( 1) O   4           s(100.00%)
                                            1.0000  0.0002  0.0000  0.0000  0.0000
                                            0.0001  0.0000  0.0000  0.0000 -0.0001
                                            0.0000  0.0000  0.0000  0.0000  0.0000
                                            0.0000  0.0000  0.0000  0.0000  0.0000
                                            0.0000  0.0000
    28. (1.99913) CR ( 1) C   5           s(100.00%)p 0.00(  0.00%)
                                            1.0000  0.0000  0.0000  0.0000  0.0000
                                            0.0001  0.0000  0.0000  0.0000 -0.0001
                                            0.0000  0.0000  0.0000 -0.0003  0.0000
                                            0.0000  0.0000  0.0000  0.0000  0.0000
                                            0.0000  0.0000
    29. (1.99916) CR ( 1) C   7           s(100.00%)p 0.00(  0.00%)
                                            1.0000 -0.0001  0.0000  0.0000  0.0000
                                           -0.0003  0.0000  0.0000  0.0000 -0.0001
                                            0.0000  0.0000  0.0000 -0.0001  0.0000
                                            0.0000  0.0000  0.0000  0.0000  0.0000
                                            0.0000  0.0000
    30. (1.99978) CR ( 1) O  10           s(100.00%)p 0.00(  0.00%)
                                            1.0000  0.0000  0.0000  0.0000  0.0000
                                           -0.0002  0.0000  0.0000  0.0000  0.0000
                                            0.0000  0.0000  0.0000 -0.0001  0.0000
                                            0.0000  0.0000  0.0000  0.0000  0.0000
                                            0.0000  0.0000
    31. (1.99909) CR ( 1) C  12           s(100.00%)p 0.00(  0.00%)
                                            1.0000 -0.0001  0.0000  0.0000  0.0000
                                           -0.0001  0.0000  0.0000  0.0000 -0.0002
                                            0.0000  0.0000  0.0000  0.0002  0.0000
                                            0.0000  0.0000  0.0000  0.0000  0.0000
                                            0.0000  0.0000
    32. (1.99980) CR ( 1) O  14           s(100.00%)
                                            1.0000  0.0001  0.0000  0.0000  0.0000
                                            0.0001  0.0000  0.0000  0.0000 -0.0001
                                            0.0000  0.0000  0.0000  0.0000  0.0000
                                            0.0000  0.0000  0.0000  0.0000  0.0000
                                            0.0000  0.0000
    33. (1.99901) CR ( 1) C  16           s(100.00%)p 0.00(  0.00%)
                                            1.0000  0.0000  0.0000  0.0000  0.0000
                                            0.0000  0.0000  0.0000  0.0000  0.0001
                                            0.0000  0.0000  0.0000  0.0004  0.0000
                                            0.0000  0.0000  0.0000  0.0000  0.0000
                                            0.0000  0.0000
    34. (1.99980) CR ( 1) O  18           s(100.00%)p 0.00(  0.00%)
                                            1.0000  0.0001  0.0000  0.0000  0.0000
                                           -0.0001  0.0000  0.0000  0.0000  0.0000
                                            0.0000  0.0000  0.0000  0.0000  0.0000
                                            0.0000  0.0000  0.0000  0.0000  0.0000
                                            0.0000  0.0000
    35. (1.99909) CR ( 1) C  20           s(100.00%)p 0.00(  0.00%)
                                            1.0000 -0.0001  0.0000  0.0000  0.0000
                                            0.0004  0.0000  0.0000  0.0000 -0.0001
                                            0.0000  0.0000  0.0000  0.0000  0.0000
                                            0.0000  0.0000  0.0000  0.0000  0.0000
                                            0.0000  0.0000
    36. (1.99980) CR ( 1) O  23           s(100.00%)p 0.00(  0.00%)
                                            1.0000  0.0000  0.0000  0.0000  0.0000
                                            0.0001  0.0000  0.0000  0.0000  0.0000
                                            0.0000  0.0000  0.0000 -0.0002  0.0000
                                            0.0000  0.0000  0.0000  0.0000  0.0000
                                            0.0000  0.0000
    37. (1.97674) LP ( 1) O   2           s( 44.71%)p 1.24( 55.26%)d 0.00(  0.04%)
                                           -0.0001  0.6686 -0.0070  0.0048  0.0002
                                            0.4448  0.0068  0.0005  0.0014  0.4264
                                           -0.0009  0.0033  0.0018 -0.4158 -0.0012
                                            0.0025 -0.0015 -0.0129  0.0086  0.0106
                                           -0.0018 -0.0008
    38. (1.91842) LP ( 2) O   2           s(  0.04%)p99.99( 99.90%)d 1.33(  0.06%)
                                            0.0000  0.0193 -0.0064  0.0036 -0.0001
                                            0.5928  0.0104  0.0031 -0.0003  0.1259
                                            0.0032 -0.0017  0.0003  0.7946  0.0152
                                            0.0003 -0.0007 -0.0104 -0.0031 -0.0099
                                           -0.0060  0.0177
    39. (1.96851) LP ( 1) O   4           s( 40.22%)p 1.49( 59.75%)d 0.00(  0.03%)
                                           -0.0001  0.6340  0.0167 -0.0010  0.0002
                                            0.0181  0.0036 -0.0001 -0.0002  0.1831
                                            0.0006  0.0017  0.0008 -0.7506 -0.0084
                                           -0.0106 -0.0025  0.0036  0.0005  0.0086
                                            0.0014 -0.0153
    40. (1.91629) LP ( 2) O   4           s(  0.39%)p99.99( 99.57%)d 0.12(  0.05%)
                                            0.0001  0.0616  0.0079 -0.0010  0.0000
                                           -0.7590 -0.0117  0.0005  0.0005  0.6206
                                            0.0010 -0.0011 -0.0006  0.1851  0.0078
                                            0.0013 -0.0009  0.0069 -0.0151  0.0116
                                            0.0030  0.0074
    41. (1.97037) LP ( 1) O  10           s( 23.83%)p 3.20( 76.14%)d 0.00(  0.03%)
                                            0.0001  0.4881 -0.0034 -0.0026  0.0001
                                            0.3995  0.0064 -0.0052  0.0000  0.7324
                                            0.0042  0.0021  0.0006 -0.2553 -0.0041
                                           -0.0074  0.0010 -0.0142  0.0003 -0.0022
                                            0.0054  0.0091
    42. (1.96249) LP ( 2) O  10           s( 23.53%)p 3.25( 76.45%)d 0.00(  0.03%)
                                            0.0001  0.4849 -0.0117 -0.0001  0.0001
                                            0.1315  0.0077 -0.0041  0.0008 -0.0955
                                           -0.0028 -0.0061  0.0017  0.8589  0.0132
                                           -0.0004  0.0006 -0.0012 -0.0099 -0.0066
                                           -0.0009 -0.0109
    43. (1.97518) LP ( 1) O  14           s( 45.65%)p 1.19( 54.32%)d 0.00(  0.04%)
                                           -0.0001  0.6755 -0.0122 -0.0002  0.0001
                                           -0.1129 -0.0007  0.0024 -0.0008 -0.5207
                                           -0.0031 -0.0020 -0.0020  0.5092  0.0023
                                            0.0006  0.0017 -0.0054  0.0025  0.0146
                                            0.0091 -0.0044
    44. (1.95387) LP ( 2) O  14           s(  0.08%)p99.99( 99.87%)d 0.60(  0.05%)
                                            0.0000  0.0288 -0.0011  0.0003  0.0000
                                           -0.3837 -0.0086 -0.0011  0.0003 -0.5804
                                           -0.0139 -0.0019  0.0005 -0.7169 -0.0169
                                           -0.0031  0.0012 -0.0085  0.0030 -0.0033
                                            0.0084  0.0183
    45. (1.97560) LP ( 1) O  18           s( 44.64%)p 1.24( 55.32%)d 0.00(  0.03%)
                                           -0.0001  0.6681 -0.0109 -0.0003  0.0001
                                            0.0459 -0.0013 -0.0048  0.0007  0.5232
                                            0.0013  0.0012  0.0016  0.5266  0.0044
                                            0.0039  0.0016 -0.0022 -0.0011 -0.0150
                                            0.0092 -0.0059
    46. (1.94451) LP ( 2) O  18           s(  0.16%)p99.99( 99.79%)d 0.29(  0.05%)
                                            0.0000  0.0403 -0.0010 -0.0027 -0.0001
                                            0.3239  0.0058  0.0006 -0.0001  0.6293
                                            0.0150 -0.0010  0.0002 -0.7046 -0.0155
                                            0.0005  0.0006 -0.0054 -0.0037  0.0010
                                            0.0095  0.0183
    47. (1.97737) LP ( 1) O  23           s( 42.47%)p 1.35( 57.50%)d 0.00(  0.03%)
                                            0.0000  0.6516 -0.0138  0.0015  0.0001
                                            0.4999  0.0068  0.0059  0.0004 -0.4353
                                            0.0019 -0.0002 -0.0010  0.3681  0.0006
                                           -0.0011  0.0016  0.0100 -0.0094  0.0118
                                           -0.0018  0.0013
    48. (1.95096) LP ( 2) O  23           s(  5.00%)p18.98( 94.96%)d 0.01(  0.04%)
                                            0.0001  0.2235 -0.0020 -0.0086 -0.0001
                                           -0.8311 -0.0179  0.0042  0.0011 -0.2424
                                           -0.0059  0.0029 -0.0018  0.4468  0.0128
                                            0.0022  0.0009 -0.0077  0.0081  0.0088
                                            0.0094 -0.0092
    49. (0.00202) RY*( 1) H   1           s( 83.34%)p 0.20( 16.66%)
                                           -0.0137  0.9126  0.0129 -0.0166  0.0505
                                           -0.3885  0.1143
    50. (0.00147) RY*( 2) H   1           s(  1.41%)p69.70( 98.59%)
                                            0.0048 -0.0236  0.0228  0.1142  0.5506
                                            0.2439  0.7894
    51. (0.00077) RY*( 3) H   1           s( 20.91%)p 3.78( 79.09%)
                                           -0.0101  0.3470 -0.2305  0.1883  0.3045
                                            0.7093 -0.4416
    52. (0.00036) RY*( 4) H   1           s( 91.88%)p 0.09(  8.12%)
                                            0.0066  0.1090  0.9476  0.0944 -0.1168
                                            0.2575 -0.0359
    53. (0.00017) RY*( 5) H   1           s( 91.42%)p 0.09(  8.58%)
                                           -0.0080 -0.0930 -0.0066  0.9516  0.0404
                                           -0.2781 -0.0825
    54. (0.00003) RY*( 6) H   1           s( 11.20%)p 7.93( 88.80%)
    55. (0.00325) RY*( 1) O   2           s( 14.43%)p 5.70( 82.24%)d 0.23(  3.33%)
                                            0.0000  0.0056  0.3499  0.1478  0.0019
                                            0.0030 -0.8780 -0.0300 -0.0195  0.0063
                                            0.0730  0.0646 -0.0425  0.0070  0.1835
                                            0.0719  0.0089 -0.1501  0.0095  0.0856
                                            0.0463 -0.0341
    56. (0.00210) RY*( 2) O   2           s(  0.41%)p99.99( 97.66%)d 4.75(  1.93%)
                                            0.0000  0.0015 -0.0226  0.0597 -0.0015
                                            0.0074 -0.1863  0.1451 -0.0175  0.0024
                                            0.1975  0.0409 -0.0508  0.0102 -0.9358
                                            0.0345 -0.0154 -0.0137 -0.0132 -0.1342
                                            0.0044  0.0307
    57. (0.00067) RY*( 3) O   2           s( 31.24%)p 2.10( 65.71%)d 0.10(  3.05%)
                                            0.0000  0.0035  0.4935  0.2623  0.0047
                                           -0.0110  0.3232 -0.0436 -0.0061  0.0119
                                            0.7170  0.0676 -0.1564  0.0035  0.0802
                                            0.0139  0.0246  0.1246  0.0333  0.1074
                                            0.0383  0.0304
    58. (0.00040) RY*( 4) O   2           s( 54.07%)p 0.83( 45.12%)d 0.01(  0.81%)
                                            0.0000 -0.0062  0.6907 -0.2522  0.0036
                                            0.0178  0.1391  0.3107  0.0081 -0.0018
                                           -0.3898 -0.1943 -0.0259 -0.0051 -0.1197
                                           -0.3607  0.0118 -0.0599 -0.0169  0.0355
                                            0.0500 -0.0212
    59. (0.00011) RY*( 5) O   2           s( 28.93%)p 1.61( 46.54%)d 0.85( 24.54%)
                                            0.0000 -0.0130 -0.0052  0.5374 -0.0173
                                            0.0062  0.1463 -0.0816 -0.0160 -0.0144
                                           -0.2065  0.5086  0.0751 -0.0049 -0.0588
                                           -0.3551 -0.0159 -0.4111 -0.1676  0.1124
                                           -0.1052 -0.1568
    60. (0.00012) RY*( 6) O   2           s(  8.36%)p10.21( 85.33%)d 0.75(  6.31%)
                                            0.0000 -0.0023  0.2888 -0.0070  0.0120
                                            0.0172  0.0915 -0.7664  0.0254 -0.0113
                                           -0.3241  0.0621 -0.1023 -0.0037 -0.1891
                                            0.3181  0.0111  0.0990 -0.1100  0.0114
                                            0.1168  0.1654
    61. (0.00006) RY*( 7) O   2           s(  7.62%)p11.78( 89.77%)d 0.34(  2.61%)
    62. (0.00005) RY*( 8) O   2           s( 12.34%)p 2.38( 29.31%)d 4.73( 58.35%)
    63. (0.00003) RY*( 9) O   2           s(  4.45%)p 4.53( 20.18%)d16.92( 75.36%)
    64. (0.00001) RY*(10) O   2           s(  0.13%)p99.99( 24.03%)d99.99( 75.84%)
    65. (0.00002) RY*(11) O   2           s( 33.39%)p 1.83( 61.17%)d 0.16(  5.44%)
    66. (0.00000) RY*(12) O   2           s(  0.09%)p99.99( 96.88%)d32.79(  3.03%)
    67. (0.00001) RY*(13) O   2           s(  0.92%)p53.68( 49.19%)d54.46( 49.90%)
    68. (0.00001) RY*(14) O   2           s(  0.47%)p15.77(  7.46%)d99.99( 92.07%)
    69. (0.00000) RY*(15) O   2           s( 99.77%)p 0.00(  0.11%)d 0.00(  0.12%)
    70. (0.00000) RY*(16) O   2           s(  1.38%)p70.22( 96.89%)d 1.26(  1.73%)
    71. (0.00001) RY*(17) O   2           s(  2.01%)p 1.32(  2.67%)d47.31( 95.32%)
    72. (0.00882) RY*( 1) C   3           s(  6.08%)p13.99( 85.14%)d 1.44(  8.77%)
                                            0.0000 -0.0526  0.2321 -0.0636  0.0129
                                            0.0189  0.1753  0.0704 -0.0207 -0.0136
                                           -0.6250 -0.0161  0.0305  0.0324  0.6491
                                            0.0163 -0.0167  0.1059 -0.0114  0.2527
                                           -0.1032 -0.0436
    73. (0.00761) RY*( 2) C   3           s(  1.11%)p65.30( 72.30%)d24.01( 26.59%)
                                            0.0000 -0.0150  0.0966  0.0343  0.0183
                                           -0.0112 -0.4831 -0.1196 -0.0530 -0.0129
                                           -0.6013 -0.0814  0.0035 -0.0273 -0.2775
                                           -0.1617  0.0126 -0.3937 -0.0629 -0.2895
                                            0.0193  0.1507
    74. (0.00486) RY*( 3) C   3           s(  7.00%)p11.05( 77.34%)d 2.24( 15.66%)
                                            0.0000 -0.0024  0.2612  0.0382  0.0173
                                            0.0056 -0.5100 -0.0926  0.0328 -0.0029
                                            0.3856 -0.0012  0.0046  0.0105  0.5898
                                           -0.0756 -0.0333 -0.0667  0.1123 -0.2920
                                            0.2285 -0.0456
    75. (0.00276) RY*( 4) C   3           s(  4.43%)p12.76( 56.53%)d 8.81( 39.04%)
                                            0.0000  0.0023  0.2032 -0.0547  0.0047
                                           -0.0215  0.6363 -0.2439 -0.0849 -0.0167
                                            0.0228 -0.0278 -0.0922 -0.0003  0.0600
                                           -0.2806 -0.0274 -0.2320 -0.1421 -0.5364
                                            0.1134 -0.1256
    76. (0.00218) RY*( 5) C   3           s( 14.44%)p 1.60( 23.16%)d 4.32( 62.40%)
                                            0.0000  0.0100  0.3716 -0.0776 -0.0141
                                           -0.0092 -0.0540 -0.2547 -0.0703 -0.0368
                                            0.2566 -0.2863  0.0219  0.0040 -0.0311
                                            0.0763 -0.0484 -0.3838 -0.2622  0.3434
                                           -0.5275 -0.1085
    77. (0.00187) RY*( 6) C   3           s( 11.61%)p 0.87( 10.09%)d 6.74( 78.30%)
                                            0.0000 -0.0029  0.3300 -0.0808 -0.0252
                                           -0.0020 -0.1760  0.1293 -0.0089 -0.0337
                                           -0.0720  0.0057  0.0144 -0.0064 -0.2082
                                            0.0208 -0.0525  0.6044 -0.1970 -0.3412
                                           -0.2905 -0.4220
    78. (0.00167) RY*( 7) C   3           s( 12.68%)p 2.08( 26.39%)d 4.81( 60.94%)
                                            0.0000  0.0035  0.3549 -0.0278 -0.0063
                                           -0.0093  0.0619 -0.1557  0.0607  0.0043
                                           -0.0983 -0.0754  0.1252  0.0191 -0.2362
                                            0.3805  0.0001 -0.1106  0.3925  0.1709
                                            0.4695 -0.4398
    79. (0.00093) RY*( 8) C   3           s( 37.89%)p 0.61( 23.08%)d 1.03( 39.03%)
                                            0.0000  0.0066  0.5714  0.2273 -0.0276
                                            0.0112  0.1514  0.3600 -0.0375 -0.0019
                                            0.0901 -0.0980  0.1594  0.0179 -0.1376
                                           -0.0115  0.1191  0.0759  0.2387 -0.0576
                                           -0.0433  0.5677
    80. (0.00056) RY*( 9) C   3           s(  7.58%)p 4.52( 34.26%)d 7.67( 58.16%)
                                            0.0000  0.0040  0.2751  0.0123  0.0028
                                           -0.0092 -0.0620  0.0193 -0.0247  0.0180
                                            0.0477  0.3859  0.0764 -0.0069 -0.1236
                                           -0.4056 -0.0215  0.0576 -0.5010  0.3893
                                            0.4192 -0.0001
    81. (0.00022) RY*(10) C   3           s(  3.19%)p22.58( 72.07%)d 7.75( 24.74%)
                                            0.0000 -0.0080  0.1377 -0.1133 -0.0081
                                            0.0078  0.0034 -0.4140  0.2250 -0.0041
                                           -0.0179  0.7025 -0.0216  0.0120 -0.0494
                                           -0.0361 -0.0221  0.0230  0.3518 -0.0012
                                           -0.3265  0.1285
    82. (0.00018) RY*(11) C   3           s(  1.27%)p74.83( 94.67%)d 3.21(  4.06%)
                                            0.0000 -0.0053 -0.0242  0.1065  0.0263
                                            0.0041 -0.0439 -0.0265 -0.7672 -0.0058
                                            0.0242  0.2104 -0.0571  0.0025  0.0260
                                            0.0085  0.5537 -0.0142  0.1140  0.0281
                                           -0.0670 -0.1488
    83. (0.00012) RY*(12) C   3           s( 26.92%)p 2.00( 53.91%)d 0.71( 19.17%)
                                            0.0000  0.0014 -0.0021  0.5186 -0.0142
                                           -0.0029  0.0354 -0.3057 -0.1712  0.0028
                                           -0.0463  0.1525  0.0442 -0.0116  0.0546
                                            0.5593 -0.2680  0.1019 -0.3514 -0.1180
                                            0.0711  0.1971
    84. (0.00009) RY*(13) C   3           s( 34.53%)p 1.40( 48.40%)d 0.49( 17.07%)
    85. (0.00006) RY*(14) C   3           s(  6.97%)p11.63( 81.06%)d 1.72( 11.97%)
    86. (0.00003) RY*(15) C   3           s( 27.02%)p 2.47( 66.82%)d 0.23(  6.16%)
    87. (0.00003) RY*(16) C   3           s( 16.68%)p 3.64( 60.70%)d 1.36( 22.62%)
    88. (0.00001) RY*(17) C   3           s( 80.79%)p 0.18( 14.45%)d 0.06(  4.76%)
    89. (0.00740) RY*( 1) O   4           s(  4.42%)p21.57( 95.24%)d 0.08(  0.34%)
                                            0.0000  0.0030  0.2076  0.0321 -0.0015
                                            0.0094 -0.8443  0.1545 -0.0116 -0.0097
                                            0.3083 -0.1389  0.0267 -0.0027  0.3157
                                            0.0244 -0.0034 -0.0041  0.0240 -0.0299
                                           -0.0285 -0.0338
    90. (0.00456) RY*( 2) O   4           s(  9.37%)p 9.39( 88.01%)d 0.28(  2.62%)
                                            0.0000  0.0039  0.3061 -0.0007  0.0022
                                           -0.0017 -0.1256  0.0536  0.0147 -0.0033
                                            0.3544  0.1179  0.0122  0.0158 -0.8474
                                           -0.0546  0.0158 -0.0668 -0.0341 -0.0711
                                           -0.0211  0.1227
    91. (0.00261) RY*( 3) O   4           s( 68.14%)p 0.43( 29.59%)d 0.03(  2.27%)
                                            0.0000  0.0095  0.8254 -0.0057 -0.0067
                                           -0.0005  0.2790  0.0984 -0.0123 -0.0150
                                           -0.1444 -0.2606 -0.0031  0.0157  0.1636
                                            0.2868 -0.0997 -0.0551  0.0182  0.0386
                                           -0.0835  0.1041
    92. (0.00134) RY*( 4) O   4           s(  0.41%)p99.99( 98.33%)d 3.04(  1.26%)
                                            0.0000 -0.0001 -0.0206  0.0610 -0.0017
                                           -0.0186 -0.3629 -0.1705 -0.0171 -0.0231
                                           -0.7409 -0.3927 -0.0417 -0.0046 -0.3205
                                           -0.1163  0.0144 -0.0269  0.0039  0.0518
                                           -0.0951  0.0116
    93. (0.00101) RY*( 5) O   4           s(  1.39%)p69.55( 96.46%)d 1.55(  2.15%)
                                            0.0000 -0.0082 -0.0807  0.0852 -0.0048
                                            0.0030  0.2269  0.3406  0.0282  0.0089
                                            0.2554 -0.6462  0.0107  0.0023 -0.0027
                                           -0.5589  0.0297  0.0422  0.1017  0.0969
                                            0.0039  0.0009
    94. (0.00064) RY*( 6) O   4           s( 31.92%)p 2.07( 65.93%)d 0.07(  2.15%)
                                            0.0000 -0.0061  0.2418  0.5106  0.0054
                                            0.0023  0.0382 -0.6830  0.0193  0.0003
                                            0.1530  0.0719 -0.0150  0.0055  0.1235
                                           -0.3622  0.1255  0.0490 -0.0180  0.0141
                                           -0.1041 -0.0878
    95. (0.00048) RY*( 7) O   4           s( 31.65%)p 1.99( 62.95%)d 0.17(  5.39%)
                                            0.0000 -0.0021  0.0994  0.5537  0.0040
                                            0.0002 -0.0050  0.5779  0.1465 -0.0014
                                           -0.2682  0.3789  0.0932  0.0052  0.0054
                                           -0.1384  0.1749  0.0298 -0.1146  0.0175
                                           -0.0747 -0.1845
    96. (0.00019) RY*( 8) O   4           s( 31.06%)p 1.78( 55.28%)d 0.44( 13.65%)
                                            0.0000  0.0084 -0.2977  0.4711 -0.0074
                                            0.0064  0.0634 -0.0255  0.0231  0.0148
                                            0.2033 -0.3641  0.0386 -0.0031 -0.1153
                                            0.5987 -0.0172 -0.0815 -0.1273 -0.0591
                                           -0.3107 -0.1171
    97. (0.00012) RY*( 9) O   4           s(  7.44%)p 1.09(  8.12%)d11.35( 84.44%)
                                            0.0000  0.0023  0.0386  0.2699 -0.0098
                                           -0.0050 -0.0075 -0.0183 -0.1068 -0.0044
                                           -0.0132 -0.1217 -0.1215  0.0054 -0.0795
                                            0.1540 -0.0974  0.0465  0.1231 -0.1212
                                            0.8674 -0.2449
    98. (0.00007) RY*(10) O   4           s(  0.97%)p18.18( 17.59%)d84.22( 81.45%)
    99. (0.00005) RY*(11) O   4           s(  8.51%)p 0.88(  7.47%)d 9.87( 84.02%)
   100. (0.00002) RY*(12) O   4           s(  2.40%)p39.56( 94.99%)d 1.09(  2.61%)
   101. (0.00002) RY*(13) O   4           s(  2.02%)p 0.71(  1.42%)d47.82( 96.56%)
   102. (0.00001) RY*(14) O   4           s(  0.26%)p 3.38(  0.87%)d99.99( 98.87%)
   103. (0.00000) RY*(15) O   4           s(  0.01%)p 1.00( 92.19%)d 0.08(  7.80%)
   104. (0.00000) RY*(16) O   4           s( 99.48%)p 0.01(  0.51%)d 0.00(  0.01%)
   105. (0.00001) RY*(17) O   4           s(  0.51%)p99.99( 85.29%)d27.89( 14.20%)
   106. (0.00639) RY*( 1) C   5           s(  7.47%)p12.07( 90.17%)d 0.32(  2.36%)
                                            0.0000  0.0076  0.2702  0.0407  0.0022
                                           -0.0046  0.4409  0.0632 -0.0074  0.0093
                                           -0.8294 -0.0092  0.0051  0.0363 -0.0839
                                            0.0616 -0.0544  0.0231 -0.0166  0.1461
                                            0.0285 -0.0254
   107. (0.00490) RY*( 2) C   5           s(  1.40%)p61.87( 86.83%)d 8.38( 11.77%)
                                            0.0000 -0.0221  0.1145 -0.0110  0.0180
                                           -0.0201 -0.6419 -0.0149  0.0276 -0.0299
                                           -0.3434 -0.1187  0.0283  0.0309  0.5614
                                           -0.0212 -0.0674  0.0834  0.1778  0.0943
                                           -0.1985 -0.1755
   108. (0.00357) RY*( 3) C   5           s(  0.15%)p99.99( 86.03%)d94.91( 13.82%)
                                            0.0000  0.0242  0.0275  0.0075 -0.0075
                                           -0.0018 -0.4640  0.0602  0.0036  0.0370
                                           -0.1485 -0.0386 -0.0849 -0.0012 -0.7804
                                           -0.0072 -0.0110 -0.1586  0.1948  0.1179
                                           -0.2462 -0.0247
   109. (0.00223) RY*( 4) C   5           s( 36.76%)p 0.38( 14.00%)d 1.34( 49.24%)
                                            0.0000 -0.0015  0.5951 -0.1155 -0.0076
                                            0.0131 -0.2405  0.0272 -0.0189 -0.0246
                                            0.1293  0.1151  0.1229  0.0016 -0.1367
                                           -0.1166 -0.0542  0.2897 -0.1269  0.1483
                                            0.6073 -0.0395
   110. (0.00146) RY*( 5) C   5           s( 20.37%)p 0.82( 16.73%)d 3.09( 62.90%)
                                            0.0000 -0.0051  0.4334  0.1254  0.0088
                                           -0.0005 -0.0913  0.0377  0.0952 -0.0151
                                           -0.0434  0.2941 -0.0365  0.0057  0.0893
                                           -0.2232  0.0273 -0.4280 -0.1635 -0.4931
                                           -0.1807  0.3785
   111. (0.00079) RY*( 6) C   5           s(  0.65%)p58.38( 37.92%)d94.56( 61.43%)
                                            0.0000  0.0027 -0.0387  0.0664 -0.0243
                                           -0.0223 -0.1725 -0.3540  0.0761 -0.0202
                                           -0.1222 -0.1452 -0.1010  0.0146 -0.1293
                                            0.3910 -0.0376  0.2819 -0.6361 -0.3423
                                           -0.0732 -0.0877
   112. (0.00056) RY*( 7) C   5           s( 30.61%)p 0.81( 24.86%)d 1.46( 44.53%)
                                            0.0000 -0.0067  0.5508  0.0258 -0.0450
                                            0.0002  0.2740 -0.0991  0.0794 -0.0259
                                            0.3059 -0.2249 -0.0915  0.0033 -0.0235
                                            0.0603  0.0036  0.1735  0.2423 -0.0934
                                           -0.4523 -0.3785
   113. (0.00038) RY*( 8) C   5           s(  0.79%)p99.29( 78.91%)d25.53( 20.29%)
                                            0.0000 -0.0023  0.0066  0.0844  0.0278
                                            0.0064 -0.0498  0.5405  0.1611 -0.0025
                                           -0.0381 -0.4583  0.0074  0.0070  0.0007
                                            0.1155  0.4936 -0.1494 -0.0252 -0.2841
                                            0.2538 -0.1867
   114. (0.00025) RY*( 9) C   5           s( 49.48%)p 0.38( 18.65%)d 0.64( 31.86%)
                                            0.0000 -0.0012  0.0873  0.6976 -0.0240
                                           -0.0022 -0.0317  0.1195  0.0919  0.0032
                                            0.1073 -0.1908 -0.2028 -0.0083  0.0473
                                            0.2237 -0.1463  0.1806  0.0978  0.2353
                                            0.0342  0.4689
   115. (0.00022) RY*(10) C   5           s(  0.57%)p99.99( 83.73%)d27.52( 15.70%)
                                            0.0000 -0.0051  0.0495 -0.0043  0.0566
                                           -0.0026 -0.0030  0.5075 -0.5850  0.0007
                                            0.0948 -0.1120  0.0545  0.0083  0.0220
                                            0.0281 -0.4601 -0.0839 -0.3285  0.0152
                                           -0.1711 -0.1118
   116. (0.00014) RY*(11) C   5           s(  6.21%)p10.77( 66.90%)d 4.33( 26.89%)
                                            0.0000 -0.0008 -0.0763  0.2364  0.0200
                                           -0.0011 -0.0049  0.3429  0.4798  0.0009
                                            0.0559  0.5569  0.0010  0.0140  0.0128
                                            0.0700 -0.0521  0.0209 -0.2248  0.1970
                                           -0.1197 -0.4059
   117. (0.00011) RY*(12) C   5           s(  2.25%)p36.49( 82.21%)d 6.90( 15.54%)
                                            0.0000  0.0017  0.1438 -0.0070  0.0423
                                            0.0138 -0.0476 -0.1064 -0.3717  0.0027
                                            0.0465  0.3317 -0.2331  0.0007  0.0918
                                            0.6565  0.2533 -0.3119  0.1498  0.0932
                                            0.1267 -0.1044
   118. (0.00008) RY*(13) C   5           s(  2.55%)p18.52( 47.20%)d19.71( 50.25%)
   119. (0.00003) RY*(14) C   5           s( 13.39%)p 2.96( 39.62%)d 3.51( 46.99%)
   120. (0.00003) RY*(15) C   5           s( 11.10%)p 4.25( 47.13%)d 3.76( 41.77%)
   121. (0.00001) RY*(16) C   5           s( 98.10%)p 0.02(  1.55%)d 0.00(  0.35%)
   122. (0.00001) RY*(17) C   5           s( 18.16%)p 4.29( 77.93%)d 0.22(  3.91%)
   123. (0.00129) RY*( 1) H   6           s( 99.87%)p 0.00(  0.13%)
                                           -0.0025  0.9993 -0.0031  0.0019 -0.0155
                                           -0.0079 -0.0319
   124. (0.00026) RY*( 2) H   6           s( 46.98%)p 1.13( 53.02%)
                                           -0.0077  0.0254  0.6682 -0.1502 -0.0503
                                            0.1939  0.7000
   125. (0.00016) RY*( 3) H   6           s( 43.61%)p 1.29( 56.39%)
                                           -0.0051 -0.0198  0.4282  0.5023 -0.5802
                                            0.2439 -0.4096
   126. (0.00011) RY*( 4) H   6           s( 65.57%)p 0.53( 34.43%)
                                            0.0063  0.0102  0.0125  0.8096  0.3486
                                           -0.3726  0.2897
   127. (0.00008) RY*( 5) H   6           s( 41.43%)p 1.41( 58.57%)
   128. (0.00005) RY*( 6) H   6           s(  2.58%)p37.78( 97.42%)
   129. (0.00311) RY*( 1) C   7           s( 23.76%)p 3.08( 73.12%)d 0.13(  3.12%)
                                            0.0000 -0.0205  0.4863 -0.0211  0.0168
                                            0.0143 -0.0661 -0.0617 -0.0972 -0.0468
                                           -0.7100  0.1324  0.1121 -0.0315 -0.4011
                                            0.0807  0.0924 -0.0799  0.0014 -0.0694
                                            0.0393 -0.1359
   130. (0.00211) RY*( 2) C   7           s(  1.40%)p64.63( 90.41%)d 5.85(  8.19%)
                                            0.0000  0.0043  0.0354  0.1128 -0.0009
                                           -0.0009  0.1085 -0.0633 -0.0647 -0.0162
                                            0.4498 -0.0561  0.0594  0.0245 -0.8164
                                            0.0570 -0.0678 -0.0588  0.1323  0.0010
                                            0.0843  0.2319
   131. (0.00173) RY*( 3) C   7           s( 14.20%)p 3.05( 43.28%)d 3.00( 42.53%)
                                            0.0000  0.0067  0.3544  0.1268  0.0163
                                           -0.0257 -0.2622 -0.2798  0.0614  0.0023
                                            0.3624  0.2669  0.0905 -0.0048  0.2064
                                            0.1569  0.0573 -0.3348 -0.2127 -0.2576
                                            0.4305 -0.1275
   132. (0.00141) RY*( 4) C   7           s(  0.75%)p12.96(  9.75%)d99.99( 89.50%)
                                            0.0000  0.0028  0.0697  0.0510 -0.0078
                                           -0.0039 -0.0120  0.0034 -0.0202  0.0082
                                            0.2081  0.0967 -0.1480 -0.0059 -0.0518
                                           -0.1013  0.0965 -0.1103  0.4271 -0.3306
                                           -0.4802 -0.6005
   133. (0.00122) RY*( 5) C   7           s(  7.06%)p 8.26( 58.33%)d 4.90( 34.61%)
                                            0.0000 -0.0114  0.2255 -0.1389 -0.0181
                                            0.0111  0.6824  0.2274 -0.0537 -0.0408
                                            0.1170 -0.1305  0.1423 -0.0296  0.0599
                                           -0.0303  0.0698 -0.4127 -0.3223  0.1746
                                           -0.0781 -0.1879
   134. (0.00051) RY*( 6) C   7           s( 14.01%)p 4.48( 62.79%)d 1.66( 23.20%)
                                            0.0000  0.0065  0.3421  0.1454 -0.0434
                                            0.0076 -0.4583  0.3688 -0.1619 -0.0083
                                            0.1660 -0.4492 -0.1325 -0.0148 -0.0534
                                            0.0028 -0.0741  0.1662 -0.3801  0.1013
                                           -0.1761 -0.1365
   135. (0.00021) RY*( 7) C   7           s( 34.17%)p 1.76( 60.25%)d 0.16(  5.58%)
                                            0.0000 -0.0030 -0.2084  0.5444 -0.0432
                                            0.0065  0.2398 -0.0741 -0.5255  0.0120
                                           -0.1405 -0.1562 -0.1373  0.0016  0.0957
                                            0.4030 -0.1691 -0.0091  0.0134 -0.1649
                                            0.1283 -0.1089
   136. (0.00014) RY*( 8) C   7           s(  1.04%)p56.20( 58.56%)d38.76( 40.39%)
                                            0.0000 -0.0039 -0.0307  0.0895 -0.0380
                                            0.0038  0.1951 -0.5383 -0.0636  0.0097
                                            0.0230 -0.0712 -0.0209 -0.0047 -0.1028
                                           -0.4687  0.1317  0.4298 -0.3963 -0.0766
                                            0.0335 -0.2348
   137. (0.00011) RY*( 9) C   7           s( 13.47%)p 3.90( 52.62%)d 2.52( 33.91%)
                                            0.0000  0.0008  0.1790  0.2812  0.1537
                                            0.0056  0.1978  0.0863  0.3227  0.0099
                                            0.0690  0.0403  0.2950  0.0011  0.0815
                                            0.3801  0.3617  0.3993 -0.0712 -0.2339
                                           -0.2808  0.2026
   138. (0.00006) RY*(10) C   7           s(  3.67%)p22.01( 80.84%)d 4.21( 15.48%)
   139. (0.00003) RY*(11) C   7           s( 31.53%)p 1.42( 44.86%)d 0.75( 23.62%)
   140. (0.00003) RY*(12) C   7           s(  7.45%)p11.06( 82.43%)d 1.36( 10.11%)
   141. (0.00003) RY*(13) C   7           s( 11.52%)p 3.05( 35.13%)d 4.63( 53.35%)
   142. (0.00004) RY*(14) C   7           s( 19.38%)p 3.43( 66.41%)d 0.73( 14.21%)
   143. (0.00001) RY*(15) C   7           s( 14.64%)p 2.44( 35.79%)d 3.39( 49.57%)
   144. (0.00001) RY*(16) C   7           s(  9.81%)p 4.21( 41.28%)d 4.98( 48.91%)
   145. (0.00000) RY*(17) C   7           s( 91.82%)p 0.05(  4.90%)d 0.04(  3.28%)
   146. (0.00104) RY*( 1) H   8           s( 99.63%)p 0.00(  0.37%)
                                           -0.0018  0.9981 -0.0004 -0.0013  0.0343
                                           -0.0370  0.0341
   147. (0.00019) RY*( 2) H   8           s(  9.41%)p 9.63( 90.59%)
                                           -0.0090 -0.0335  0.3003 -0.0522  0.9300
                                            0.1121  0.1684
   148. (0.00013) RY*( 3) H   8           s( 78.63%)p 0.27( 21.37%)
                                           -0.0008  0.0235  0.8778  0.1237 -0.2071
                                            0.0479 -0.4105
   149. (0.00009) RY*( 4) H   8           s( 85.09%)p 0.18( 14.91%)
   150. (0.00007) RY*( 5) H   8           s( 25.80%)p 2.88( 74.20%)
   151. (0.00003) RY*( 6) H   8           s(  1.48%)p66.65( 98.52%)
   152. (0.00121) RY*( 1) H   9           s( 97.90%)p 0.02(  2.10%)
                                           -0.0022  0.9894  0.0004  0.0005  0.1362
                                            0.0405 -0.0291
   153. (0.00016) RY*( 2) H   9           s( 96.13%)p 0.04(  3.87%)
                                            0.0036 -0.0049  0.9802 -0.0205 -0.0099
                                            0.0013 -0.1964
   154. (0.00015) RY*( 3) H   9           s(  2.92%)p33.29( 97.08%)
                                           -0.0067 -0.1027  0.0883  0.1038  0.8857
                                           -0.1929  0.3863
   155. (0.00009) RY*( 4) H   9           s(  2.00%)p48.99( 98.00%)
   156. (0.00007) RY*( 5) H   9           s( 86.59%)p 0.15( 13.41%)
   157. (0.00003) RY*( 6) H   9           s( 14.50%)p 5.90( 85.50%)
   158. (0.00284) RY*( 1) O  10           s( 16.50%)p 4.83( 79.70%)d 0.23(  3.81%)
                                            0.0000  0.0037  0.3612  0.1857  0.0005
                                           -0.0069 -0.8185 -0.0972 -0.0160  0.0113
                                           -0.1730  0.1576 -0.0172  0.0082  0.2480
                                            0.0108 -0.0204 -0.1431 -0.0442 -0.0091
                                            0.1246 -0.0029
   159. (0.00224) RY*( 2) O  10           s(  6.85%)p13.08( 89.53%)d 0.53(  3.63%)
                                            0.0000  0.0018  0.2416  0.1005  0.0022
                                           -0.0037 -0.1778 -0.0807 -0.0030  0.0024
                                            0.5885  0.0810 -0.0127  0.0153 -0.7094
                                            0.0225 -0.0122 -0.0537  0.0200 -0.0616
                                           -0.0251 -0.1690
   160. (0.00050) RY*( 3) O  10           s( 69.83%)p 0.36( 25.33%)d 0.07(  4.84%)
                                            0.0000 -0.0052  0.8323 -0.0741  0.0002
                                           -0.0096  0.3596 -0.1155  0.0238  0.0126
                                            0.0877 -0.0689  0.0052  0.0111  0.2213
                                           -0.2193 -0.0137  0.0797 -0.0335  0.0760
                                           -0.1558  0.1044
   161. (0.00028) RY*( 4) O  10           s( 15.02%)p 5.45( 81.87%)d 0.21(  3.11%)
                                            0.0000  0.0032 -0.1284  0.3656 -0.0029
                                           -0.0173  0.0519  0.2543 -0.0070  0.0097
                                            0.6363  0.2806 -0.0509  0.0002  0.4953
                                            0.1354 -0.0348  0.0579  0.0307  0.1290
                                           -0.0288  0.0966
   162. (0.00014) RY*( 5) O  10           s( 22.13%)p 3.38( 74.87%)d 0.14(  2.99%)
                                            0.0000  0.0038 -0.1346  0.4505  0.0147
                                           -0.0009 -0.0518 -0.3092  0.0781 -0.0098
                                            0.1469 -0.7346 -0.1174 -0.0122  0.1095
                                           -0.2385 -0.0143 -0.0821  0.0655 -0.1318
                                           -0.0132  0.0371
   163. (0.00010) RY*( 6) O  10           s( 36.84%)p 1.29( 47.36%)d 0.43( 15.80%)
                                            0.0000 -0.0126  0.0268  0.6059  0.0199
                                            0.0305  0.3376 -0.2445  0.0704 -0.0156
                                           -0.2817  0.4162 -0.0126  0.0014 -0.1531
                                           -0.1308  0.0174 -0.0659  0.0192  0.0152
                                            0.3893 -0.0383
   164. (0.00011) RY*( 7) O  10           s(  9.73%)p 7.33( 71.34%)d 1.95( 18.93%)
                                            0.0000 -0.0005  0.1965  0.2422  0.0013
                                            0.0152  0.0741  0.0068 -0.0149  0.0085
                                           -0.1962 -0.1760 -0.0698  0.0046 -0.0603
                                            0.7924 -0.0373  0.1400  0.3768  0.0211
                                           -0.1603 -0.0404
   165. (0.00005) RY*( 8) O  10           s(  7.66%)p10.25( 78.57%)d 1.80( 13.76%)
   166. (0.00002) RY*( 9) O  10           s(  0.76%)p28.34( 21.42%)d99.99( 77.83%)
   167. (0.00002) RY*(10) O  10           s(  2.35%)p11.43( 26.81%)d30.20( 70.85%)
   168. (0.00002) RY*(11) O  10           s(  3.13%)p 9.67( 30.26%)d21.29( 66.61%)
   169. (0.00000) RY*(12) O  10           s(  0.59%)p99.99( 84.79%)d24.78( 14.62%)
   170. (0.00000) RY*(13) O  10           s(  1.42%)p59.70( 85.01%)d 9.52( 13.56%)
   171. (0.00001) RY*(14) O  10           s(  7.15%)p 2.16( 15.48%)d10.81( 77.36%)
   172. (0.00001) RY*(15) O  10           s(  0.26%)p17.66(  4.59%)d99.99( 95.15%)
   173. (0.00000) RY*(16) O  10           s( 99.73%)p 0.00(  0.06%)d 0.00(  0.21%)
   174. (0.00000) RY*(17) O  10           s(  0.03%)p99.99( 83.25%)d99.99( 16.72%)
   175. (0.00165) RY*( 1) H  11           s(  3.59%)p26.89( 96.41%)
                                           -0.0001  0.1869 -0.0074 -0.0295 -0.2346
                                           -0.6955  0.6523
   176. (0.00117) RY*( 2) H  11           s( 29.81%)p 2.36( 70.19%)
                                           -0.0006  0.5269  0.1171 -0.0822 -0.0358
                                           -0.4844 -0.6827
   177. (0.00045) RY*( 3) H  11           s( 74.67%)p 0.34( 25.33%)
                                            0.0084  0.7558 -0.3857  0.1628 -0.1557
                                            0.4366  0.1960
   178. (0.00027) RY*( 4) H  11           s( 92.42%)p 0.08(  7.58%)
                                           -0.0006  0.2508  0.9065  0.1987 -0.0031
                                            0.2134  0.1739
   179. (0.00008) RY*( 5) H  11           s( 94.53%)p 0.06(  5.47%)
   180. (0.00002) RY*( 6) H  11           s(  5.09%)p18.64( 94.91%)
   181. (0.00648) RY*( 1) C  12           s(  3.70%)p25.51( 94.44%)d 0.50(  1.86%)
                                            0.0000 -0.0562  0.1703 -0.0666  0.0207
                                           -0.0330 -0.1534 -0.0593  0.0983  0.0375
                                            0.8016  0.0600 -0.0692 -0.0052 -0.4993
                                            0.0688  0.0137 -0.0803  0.0384  0.0707
                                            0.0747 -0.0085
   182. (0.00438) RY*( 2) C  12           s( 11.78%)p 6.84( 80.57%)d 0.65(  7.65%)
                                            0.0000 -0.0042  0.3427  0.0184  0.0046
                                           -0.0506  0.7867 -0.1242  0.0624 -0.0027
                                           -0.1327 -0.1855  0.0018  0.0104 -0.3310
                                            0.0549  0.0141 -0.0903  0.1790 -0.0737
                                           -0.1702 -0.0436
   183. (0.00309) RY*( 3) C  12           s(  0.55%)p79.43( 43.73%)d99.99( 55.72%)
                                            0.0000  0.0051  0.0355  0.0650 -0.0017
                                            0.0056  0.2574  0.1045 -0.0608  0.0131
                                            0.2435  0.2398 -0.0309  0.0177  0.4106
                                            0.2513 -0.0799  0.0182  0.4124 -0.3029
                                            0.4856  0.2432
   184. (0.00230) RY*( 4) C  12           s( 10.71%)p 3.70( 39.64%)d 4.64( 49.65%)
                                            0.0000 -0.0080  0.0138  0.3265  0.0150
                                            0.0049 -0.1858  0.1398 -0.0169 -0.0022
                                            0.1778 -0.4591 -0.0135  0.0072  0.1171
                                            0.2927 -0.0081  0.1724  0.1170 -0.3802
                                           -0.5260  0.1785
   185. (0.00122) RY*( 5) C  12           s( 35.67%)p 1.45( 51.79%)d 0.35( 12.54%)
                                            0.0000  0.0020  0.5961  0.0336 -0.0160
                                           -0.0092  0.0023 -0.2541 -0.0676  0.0291
                                            0.2436 -0.0558 -0.0630 -0.0059  0.5646
                                           -0.2502  0.0003 -0.0652 -0.2298  0.0530
                                           -0.1018 -0.2349
   186. (0.00066) RY*( 6) C  12           s( 11.85%)p 3.96( 46.95%)d 3.47( 41.19%)
                                            0.0000 -0.0070  0.3360 -0.0721  0.0191
                                           -0.0143 -0.3989 -0.2883 -0.0107  0.0216
                                           -0.3284  0.1560  0.0465 -0.0206 -0.2390
                                            0.1294 -0.1337 -0.1965  0.0986 -0.5685
                                            0.1135 -0.1659
   187. (0.00056) RY*( 7) C  12           s( 29.18%)p 1.45( 42.33%)d 0.98( 28.49%)
                                            0.0000  0.0088  0.5322  0.0917 -0.0058
                                           -0.0033 -0.2461  0.4381  0.1131  0.0010
                                           -0.2416 -0.1379 -0.2064  0.0023 -0.1138
                                           -0.1556  0.0301  0.0795  0.2393  0.2968
                                            0.1753  0.3202
   188. (0.00033) RY*( 8) C  12           s(  0.78%)p43.10( 33.77%)d83.54( 65.45%)
                                            0.0000  0.0031  0.0541  0.0700  0.0022
                                           -0.0119 -0.0720  0.0354  0.1278  0.0188
                                           -0.0109  0.2176  0.4589  0.0049  0.1319
                                            0.1961 -0.0212 -0.6483  0.1422  0.2758
                                           -0.2944  0.2264
   189. (0.00021) RY*( 9) C  12           s( 27.12%)p 2.01( 54.64%)d 0.67( 18.24%)
                                            0.0000  0.0006  0.1255  0.5052 -0.0143
                                            0.0088 -0.0192 -0.3272  0.0872 -0.0070
                                           -0.0847  0.3130  0.1479 -0.0067 -0.0760
                                            0.2476  0.4869  0.3606 -0.1311  0.1424
                                            0.0628  0.1047
   190. (0.00017) RY*(10) C  12           s(  1.51%)p41.77( 63.25%)d23.27( 35.24%)
                                            0.0000  0.0035  0.0375  0.1168  0.0085
                                           -0.0090 -0.0228 -0.0068 -0.2713 -0.0046
                                           -0.0554  0.3669 -0.3585 -0.0054 -0.0132
                                            0.3137 -0.4398  0.1621  0.2290  0.3255
                                           -0.2916 -0.2875
   191. (0.00009) RY*(11) C  12           s(  4.89%)p 9.93( 48.51%)d 9.53( 46.60%)
   192. (0.00008) RY*(12) C  12           s(  2.36%)p37.59( 88.58%)d 3.85(  9.06%)
   193. (0.00007) RY*(13) C  12           s( 48.62%)p 0.19(  9.07%)d 0.87( 42.30%)
   194. (0.00005) RY*(14) C  12           s(  1.70%)p43.65( 74.38%)d14.04( 23.92%)
   195. (0.00003) RY*(15) C  12           s( 16.69%)p 4.13( 68.93%)d 0.86( 14.37%)
   196. (0.00003) RY*(16) C  12           s(  7.56%)p 6.15( 46.53%)d 6.07( 45.91%)
   197. (0.00000) RY*(17) C  12           s( 85.45%)p 0.15( 13.07%)d 0.02(  1.49%)
   198. (0.00136) RY*( 1) H  13           s( 99.72%)p 0.00(  0.28%)
                                           -0.0023  0.9986 -0.0054  0.0023 -0.0488
                                            0.0192  0.0090
   199. (0.00031) RY*( 2) H  13           s( 67.21%)p 0.49( 32.79%)
                                           -0.0094  0.0339  0.8150 -0.0813  0.5577
                                           -0.0460 -0.1216
   200. (0.00015) RY*( 3) H  13           s( 80.95%)p 0.24( 19.05%)
                                            0.0057 -0.0144  0.2560  0.8624 -0.1520
                                            0.1552  0.3786
   201. (0.00013) RY*( 4) H  13           s(  9.94%)p 9.06( 90.06%)
                                           -0.0025  0.0238 -0.1289  0.2868  0.1226
                                           -0.9314 -0.1340
   202. (0.00012) RY*( 5) H  13           s( 12.24%)p 7.17( 87.76%)
                                            0.0026 -0.0228  0.3361  0.0947 -0.6275
                                           -0.0006 -0.6955
   203. (0.00008) RY*( 6) H  13           s( 29.98%)p 2.34( 70.02%)
   204. (0.00314) RY*( 1) O  14           s(  0.18%)p99.99( 97.69%)d11.63(  2.12%)
                                            0.0000 -0.0005  0.0362  0.0227  0.0012
                                            0.0069 -0.4059  0.0165 -0.0149  0.0127
                                           -0.5724  0.0415 -0.0141  0.0151 -0.6930
                                            0.0326 -0.0165 -0.0107 -0.0799  0.0594
                                           -0.0944 -0.0479
   205. (0.00138) RY*( 2) O  14           s(  0.36%)p99.99( 92.95%)d18.83(  6.69%)
                                            0.0000  0.0037 -0.0409  0.0432  0.0022
                                            0.0079 -0.1688  0.1406 -0.0566  0.0007
                                           -0.6712 -0.0711  0.0225 -0.0048  0.6487
                                           -0.0308  0.0108  0.0412  0.1211 -0.1046
                                           -0.1892  0.0621
   206. (0.00048) RY*( 3) O  14           s( 34.95%)p 1.84( 64.49%)d 0.02(  0.56%)
                                            0.0000  0.0079 -0.1155  0.5798  0.0004
                                            0.0260  0.6999  0.1602  0.0202 -0.0023
                                           -0.2756 -0.0176  0.0802 -0.0104 -0.1677
                                           -0.1168 -0.0604 -0.0139 -0.0626  0.0017
                                            0.0305 -0.0237
   207. (0.00019) RY*( 4) O  14           s( 69.44%)p 0.29( 19.85%)d 0.15( 10.71%)
                                            0.0000 -0.0112  0.5601  0.6169  0.0044
                                           -0.0153 -0.3717 -0.0091 -0.0144 -0.0070
                                            0.1467 -0.0742  0.0965  0.0110  0.1447
                                           -0.0316 -0.0369 -0.1872 -0.1182  0.0326
                                            0.1800 -0.1570
   208. (0.00010) RY*( 5) O  14           s( 21.93%)p 3.34( 73.25%)d 0.22(  4.82%)
                                            0.0000 -0.0028  0.4133 -0.2200 -0.0075
                                            0.0210  0.3068 -0.5742  0.0483 -0.0176
                                           -0.1960 -0.4750  0.0704  0.0047 -0.0314
                                            0.1812  0.0521 -0.1264 -0.0419 -0.1443
                                           -0.0921 -0.0347
   209. (0.00005) RY*( 6) O  14           s(  3.95%)p21.90( 86.45%)d 2.43(  9.60%)
   210. (0.00005) RY*( 7) O  14           s( 41.28%)p 1.10( 45.45%)d 0.32( 13.27%)
   211. (0.00003) RY*( 8) O  14           s(  7.21%)p12.81( 92.39%)d 0.06(  0.40%)
   212. (0.00003) RY*( 9) O  14           s(  3.82%)p 6.05( 23.13%)d19.11( 73.04%)
   213. (0.00004) RY*(10) O  14           s(  3.25%)p 6.97( 22.66%)d22.78( 74.09%)
   214. (0.00000) RY*(11) O  14           s(  1.53%)p58.41( 89.51%)d 5.85(  8.96%)
   215. (0.00000) RY*(12) O  14           s(  0.76%)p99.99( 98.63%)d 0.80(  0.61%)
   216. (0.00000) RY*(13) O  14           s(  2.76%)p 0.63(  1.73%)d34.58( 95.51%)
   217. (0.00000) RY*(14) O  14           s(  2.19%)p 1.31(  2.87%)d43.29( 94.94%)
   218. (0.00000) RY*(15) O  14           s(  1.20%)p 5.07(  6.09%)d77.25( 92.71%)
   219. (0.00000) RY*(16) O  14           s(  5.38%)p15.42( 83.05%)d 2.15( 11.56%)
   220. (0.00000) RY*(17) O  14           s( 99.79%)p 0.00(  0.10%)d 0.00(  0.12%)
   221. (0.00197) RY*( 1) H  15           s( 66.19%)p 0.51( 33.81%)
                                           -0.0115  0.8060 -0.1087 -0.0156 -0.2726
                                            0.4876 -0.1613
   222. (0.00143) RY*( 2) H  15           s(  0.54%)p99.99( 99.46%)
                                           -0.0008  0.0702  0.0224  0.0019 -0.3746
                                           -0.5629 -0.7331
   223. (0.00074) RY*( 3) H  15           s( 71.58%)p 0.40( 28.42%)
                                           -0.0087  0.4344  0.7228  0.0672  0.0671
                                           -0.4048  0.3404
   224. (0.00031) RY*( 4) H  15           s( 58.55%)p 0.71( 41.45%)
                                            0.0142 -0.2637  0.6463 -0.3131  0.0875
                                            0.4803 -0.4198
   225. (0.00015) RY*( 5) H  15           s( 93.50%)p 0.07(  6.50%)
                                           -0.0005 -0.1357  0.1763  0.9410 -0.0802
                                            0.2080 -0.1239
   226. (0.00004) RY*( 6) H  15           s(  9.83%)p 9.18( 90.17%)
   227. (0.00678) RY*( 1) C  16           s(  3.25%)p29.54( 95.91%)d 0.26(  0.84%)
                                            0.0000 -0.0438  0.1726 -0.0176  0.0213
                                            0.0206  0.4067 -0.0018 -0.0575 -0.0411
                                           -0.8104 -0.0729  0.0761 -0.0114 -0.3402
                                            0.0668 -0.0039 -0.0382 -0.0263 -0.0303
                                            0.0724 -0.0101
   228. (0.00445) RY*( 2) C  16           s(  5.90%)p14.79( 87.19%)d 1.17(  6.91%)
                                            0.0000 -0.0201  0.2393  0.0340  0.0119
                                            0.0467 -0.7064  0.0557 -0.1034 -0.0059
                                           -0.0550  0.1388 -0.0033  0.0249 -0.5616
                                            0.1358  0.0121 -0.0679 -0.2329  0.0444
                                           -0.0515 -0.0754
   229. (0.00310) RY*( 3) C  16           s( 13.04%)p 3.72( 48.54%)d 2.95( 38.42%)
                                            0.0000  0.0159  0.2531  0.2571  0.0021
                                           -0.0134 -0.1672 -0.2236  0.1159 -0.0075
                                           -0.2367  0.0564  0.0211  0.0074  0.5142
                                            0.2608 -0.0396  0.1215 -0.3965  0.3390
                                            0.1536  0.2716
   230. (0.00185) RY*( 4) C  16           s(  2.19%)p12.61( 27.58%)d32.11( 70.23%)
                                            0.0000 -0.0074  0.0201  0.1460  0.0094
                                            0.0012  0.2023 -0.0075  0.0127  0.0082
                                            0.0073  0.4298 -0.0339 -0.0014 -0.0256
                                            0.2180  0.0198 -0.0360  0.0855  0.2224
                                           -0.8019  0.0351
   231. (0.00117) RY*( 5) C  16           s( 61.92%)p 0.42( 26.21%)d 0.19( 11.87%)
                                            0.0000  0.0036  0.7813 -0.0918 -0.0181
                                            0.0263  0.0418  0.4186  0.0269 -0.0210
                                            0.0858 -0.0176  0.0379 -0.0187  0.2544
                                           -0.0813  0.0500 -0.2239  0.1855 -0.0322
                                           -0.0168 -0.1812
   232. (0.00094) RY*( 6) C  16           s(  8.66%)p 8.12( 70.32%)d 2.43( 21.02%)
                                            0.0000 -0.0133  0.2829  0.0750  0.0279
                                            0.0163  0.5001 -0.1384 -0.0588  0.0006
                                            0.5055  0.0722 -0.0133 -0.0053 -0.3790
                                            0.1441 -0.0697  0.0511 -0.3815  0.0645
                                            0.2203  0.0967
   233. (0.00054) RY*( 7) C  16           s(  5.97%)p 7.56( 45.12%)d 8.20( 48.92%)
                                            0.0000  0.0099  0.2360 -0.0615 -0.0111
                                           -0.0100 -0.0549 -0.4226  0.0285  0.0136
                                           -0.0028  0.2737  0.4307  0.0090  0.0607
                                           -0.0458  0.0461  0.4723  0.1006 -0.4809
                                           -0.0500 -0.1490
   234. (0.00036) RY*( 8) C  16           s(  5.91%)p 5.62( 33.20%)d10.31( 60.89%)
                                            0.0000  0.0037  0.0103  0.2420 -0.0205
                                           -0.0014  0.0089  0.0364  0.1154 -0.0086
                                           -0.0119 -0.3514 -0.3208  0.0077  0.1023
                                            0.2613 -0.1089 -0.0746 -0.3270 -0.6375
                                           -0.2756 -0.1185
   235. (0.00022) RY*( 9) C  16           s( 27.10%)p 1.34( 36.27%)d 1.35( 36.62%)
                                            0.0000 -0.0071 -0.0152  0.5200 -0.0200
                                           -0.0152 -0.0171  0.2885 -0.0800  0.0156
                                            0.0732 -0.1547  0.1162 -0.0080 -0.1156
                                            0.4419  0.1442  0.3153  0.4664 -0.0124
                                            0.1649  0.1482
   236. (0.00016) RY*(10) C  16           s( 12.47%)p 4.51( 56.21%)d 2.51( 31.32%)
                                            0.0000  0.0013 -0.2316  0.2664 -0.0106
                                           -0.0015  0.0740  0.5055  0.2536 -0.0018
                                           -0.0612  0.3841  0.1777 -0.0011  0.0384
                                           -0.1460 -0.1762  0.1640 -0.3130 -0.0001
                                            0.1546 -0.4055
   237. (0.00009) RY*(11) C  16           s(  4.26%)p17.15( 73.08%)d 5.32( 22.66%)
   238. (0.00009) RY*(12) C  16           s( 27.47%)p 2.55( 69.92%)d 0.10(  2.61%)
   239. (0.00005) RY*(13) C  16           s( 13.03%)p 3.90( 50.85%)d 2.77( 36.12%)
   240. (0.00005) RY*(14) C  16           s(  0.49%)p61.90( 30.30%)d99.99( 69.21%)
   241. (0.00002) RY*(15) C  16           s( 12.50%)p 6.27( 78.37%)d 0.73(  9.14%)
   242. (0.00003) RY*(16) C  16           s(  3.16%)p20.47( 64.70%)d10.16( 32.14%)
   243. (0.00000) RY*(17) C  16           s( 92.81%)p 0.07(  6.46%)d 0.01(  0.73%)
   244. (0.00112) RY*( 1) H  17           s( 99.87%)p 0.00(  0.13%)
                                           -0.0020  0.9993  0.0051  0.0012  0.0177
                                            0.0120  0.0289
   245. (0.00030) RY*( 2) H  17           s( 60.60%)p 0.65( 39.40%)
                                            0.0107 -0.0207  0.7766  0.0477  0.4168
                                           -0.2210  0.4141
   246. (0.00015) RY*( 3) H  17           s(  2.10%)p46.65( 97.90%)
                                            0.0029 -0.0167  0.0002  0.1439  0.5187
                                            0.8374 -0.0933
   247. (0.00011) RY*( 4) H  17           s( 80.95%)p 0.24( 19.05%)
                                            0.0032  0.0006 -0.2751  0.8566  0.2844
                                           -0.3282 -0.0443
   248. (0.00008) RY*( 5) H  17           s( 43.24%)p 1.31( 56.76%)
   249. (0.00007) RY*( 6) H  17           s( 13.29%)p 6.53( 86.71%)
   250. (0.00342) RY*( 1) O  18           s(  0.27%)p99.99( 96.98%)d10.05(  2.75%)
                                            0.0000 -0.0042 -0.0200  0.0481  0.0005
                                           -0.0032  0.4082  0.0500 -0.0101 -0.0079
                                            0.5852  0.0003  0.0129  0.0189 -0.6759
                                           -0.0228 -0.0100 -0.0256  0.1047 -0.0550
                                           -0.1056 -0.0409
   251. (0.00175) RY*( 2) O  18           s(  0.91%)p99.99( 94.13%)d 5.44(  4.96%)
                                            0.0000  0.0043 -0.0064  0.0952  0.0020
                                           -0.0027  0.1574 -0.0631  0.0552 -0.0032
                                            0.6722  0.0449 -0.0186 -0.0045  0.6745
                                            0.0193 -0.0012  0.0174 -0.1230  0.0868
                                           -0.1612  0.0247
   252. (0.00071) RY*( 3) O  18           s( 15.06%)p 5.63( 84.73%)d 0.01(  0.22%)
                                            0.0000 -0.0101  0.2877 -0.2601  0.0056
                                            0.0305  0.8219  0.0361  0.0136  0.0039
                                           -0.3322 -0.1079  0.0484  0.0135  0.1798
                                            0.1095  0.0211 -0.0326 -0.0176  0.0241
                                           -0.0079 -0.0119
   253. (0.00033) RY*( 4) O  18           s( 73.23%)p 0.27( 19.43%)d 0.10(  7.34%)
                                            0.0000 -0.0051  0.2890  0.8054  0.0042
                                            0.0064  0.1081  0.3633 -0.0056  0.0061
                                           -0.0893  0.1305 -0.1086  0.0039  0.0516
                                            0.0545 -0.0895 -0.1080  0.0901 -0.0264
                                            0.2186 -0.0719
   254. (0.00017) RY*( 5) O  18           s( 45.65%)p 0.81( 37.11%)d 0.38( 17.24%)
                                            0.0000 -0.0054  0.6744 -0.0414  0.0001
                                           -0.0189 -0.2403 -0.4044  0.0174  0.0135
                                            0.1410 -0.2889  0.0712  0.0071 -0.0691
                                            0.1853 -0.0382 -0.3300  0.1472  0.1927
                                            0.0633 -0.0251
   255. (0.00009) RY*( 6) O  18           s( 13.78%)p 5.38( 74.10%)d 0.88( 12.12%)
   256. (0.00005) RY*( 7) O  18           s( 22.56%)p 3.31( 74.64%)d 0.12(  2.80%)
   257. (0.00006) RY*( 8) O  18           s(  3.11%)p27.14( 84.36%)d 4.03( 12.53%)
   258. (0.00003) RY*( 9) O  18           s(  8.73%)p 4.00( 34.91%)d 6.46( 56.37%)
   259. (0.00001) RY*(10) O  18           s(  1.50%)p 5.75(  8.65%)d59.73( 89.84%)
   260. (0.00000) RY*(11) O  18           s(  0.93%)p99.02( 91.62%)d 8.06(  7.45%)
   261. (0.00000) RY*(12) O  18           s(  1.28%)p77.29( 98.58%)d 0.12(  0.15%)
   262. (0.00001) RY*(13) O  18           s(  6.42%)p 1.61( 10.33%)d12.96( 83.25%)
   263. (0.00001) RY*(14) O  18           s(  0.62%)p11.86(  7.36%)d99.99( 92.02%)
   264. (0.00001) RY*(15) O  18           s(  3.27%)p 0.72(  2.36%)d28.85( 94.37%)
   265. (0.00000) RY*(16) O  18           s( 99.55%)p 0.00(  0.06%)d 0.00(  0.38%)
   266. (0.00000) RY*(17) O  18           s(  3.13%)p25.82( 80.90%)d 5.10( 15.96%)
   267. (0.00194) RY*( 1) H  19           s( 69.94%)p 0.43( 30.06%)
                                           -0.0103  0.8234 -0.1459 -0.0008  0.3426
                                           -0.3603 -0.2311
   268. (0.00139) RY*( 2) H  19           s( 10.18%)p 8.82( 89.82%)
                                           -0.0024  0.1425  0.2780  0.0651 -0.2665
                                           -0.5192  0.7467
   269. (0.00076) RY*( 3) H  19           s( 57.28%)p 0.75( 42.72%)
                                           -0.0082  0.4416  0.6133 -0.0396 -0.0457
                                            0.6408  0.1201
   270. (0.00018) RY*( 4) H  19           s( 53.16%)p 0.88( 46.84%)
                                            0.0186 -0.1753  0.6524 -0.2737 -0.1052
                                           -0.4299 -0.5220
   271. (0.00014) RY*( 5) H  19           s( 95.11%)p 0.05(  4.89%)
                                            0.0059 -0.0285  0.1811  0.9578 -0.0535
                                           -0.0596 -0.2061
   272. (0.00008) RY*( 6) H  19           s( 14.49%)p 5.90( 85.51%)
   273. (0.00598) RY*( 1) C  20           s(  4.81%)p19.42( 93.41%)d 0.37(  1.78%)
                                            0.0000 -0.0262  0.2135 -0.0423  0.0066
                                           -0.0182 -0.1409 -0.0037  0.0529  0.0626
                                            0.8886  0.0514 -0.1052  0.0181 -0.3165
                                            0.0539 -0.0206  0.0951 -0.0456 -0.0011
                                           -0.0760 -0.0293
   274. (0.00346) RY*( 2) C  20           s( 41.29%)p 0.64( 26.51%)d 0.78( 32.20%)
                                            0.0000 -0.0004  0.6246  0.1505  0.0090
                                            0.0193  0.1733  0.1077 -0.0802  0.0253
                                           -0.1646 -0.2716 -0.0300  0.0096 -0.3378
                                            0.0017 -0.0061 -0.5582 -0.0868  0.0056
                                            0.0240 -0.0480
   275. (0.00233) RY*( 3) C  20           s(  8.31%)p10.01( 83.17%)d 1.02(  8.52%)
                                            0.0000 -0.0087  0.2825 -0.0568  0.0040
                                            0.0045  0.1381 -0.0697 -0.0660  0.0253
                                            0.2863 -0.1222 -0.0366 -0.0305  0.8308
                                           -0.1143  0.0148 -0.2005  0.1147  0.1776
                                           -0.0020 -0.0171
   276. (0.00148) RY*( 4) C  20           s(  1.79%)p36.80( 65.69%)d18.22( 32.52%)
                                            0.0000  0.0134  0.1250  0.0012 -0.0452
                                            0.0025  0.7240 -0.0428  0.1487 -0.0049
                                            0.0589  0.2149  0.2098  0.0031  0.0088
                                            0.1194 -0.0285  0.1719  0.1470 -0.4979
                                           -0.1278 -0.0992
   277. (0.00121) RY*( 5) C  20           s( 29.40%)p 1.51( 44.46%)d 0.89( 26.14%)
                                            0.0000 -0.0079  0.5145 -0.1707 -0.0093
                                            0.0031 -0.2756  0.0058  0.0076  0.0461
                                           -0.2620  0.5368 -0.0442 -0.0007  0.0313
                                            0.0794 -0.0211  0.2153  0.1424  0.1678
                                           -0.4005 -0.0786
   278. (0.00076) RY*( 6) C  20           s(  2.05%)p14.70( 30.15%)d33.06( 67.80%)
                                            0.0000  0.0113  0.1130  0.0865 -0.0114
                                            0.0008  0.4411 -0.0601  0.1753 -0.0154
                                           -0.0259  0.0187 -0.0547 -0.0060 -0.1654
                                           -0.1940  0.0577  0.3432 -0.0177  0.6641
                                            0.2006  0.2802
   279. (0.00025) RY*( 7) C  20           s(  5.74%)p 6.16( 35.37%)d10.25( 58.88%)
                                            0.0000 -0.0062  0.1917 -0.1338  0.0524
                                           -0.0004 -0.1526  0.2088  0.0796 -0.0026
                                           -0.0686 -0.4505 -0.0937 -0.0094 -0.0662
                                           -0.2437 -0.0167  0.3527  0.6346 -0.1972
                                            0.1486 -0.0287
   280. (0.00016) RY*( 8) C  20           s( 37.79%)p 1.43( 54.15%)d 0.21(  8.07%)
                                            0.0000 -0.0037  0.0026  0.6137 -0.0354
                                            0.0004 -0.0959  0.5939  0.1630 -0.0070
                                            0.0630  0.3558 -0.0484 -0.0083  0.1317
                                           -0.0102  0.0504 -0.0514  0.1113 -0.0556
                                            0.2465  0.0422
   281. (0.00013) RY*( 9) C  20           s(  4.25%)p19.11( 81.23%)d 3.42( 14.53%)
                                            0.0000 -0.0004  0.1772  0.1048 -0.0110
                                            0.0061 -0.1265 -0.1769  0.5256 -0.0036
                                           -0.0984 -0.2334 -0.1732 -0.0055  0.1503
                                            0.5801 -0.1880  0.1938 -0.2113 -0.0295
                                            0.2232 -0.1112
   282. (0.00009) RY*(10) C  20           s( 27.21%)p 1.57( 42.83%)d 1.10( 29.96%)
   283. (0.00008) RY*(11) C  20           s(  0.81%)p99.99( 91.53%)d 9.49(  7.66%)
   284. (0.00004) RY*(12) C  20           s(  8.08%)p 8.06( 65.08%)d 3.32( 26.84%)
   285. (0.00002) RY*(13) C  20           s(  4.90%)p 5.15( 25.19%)d14.28( 69.91%)
   286. (0.00002) RY*(14) C  20           s(  3.16%)p28.43( 89.72%)d 2.26(  7.13%)
   287. (0.00001) RY*(15) C  20           s( 21.37%)p 0.92( 19.70%)d 2.76( 58.93%)
   288. (0.00002) RY*(16) C  20           s(  5.86%)p 8.24( 48.28%)d 7.82( 45.85%)
   289. (0.00000) RY*(17) C  20           s( 93.00%)p 0.04(  4.15%)d 0.03(  2.85%)
   290. (0.00119) RY*( 1) H  21           s( 99.05%)p 0.01(  0.95%)
                                           -0.0027  0.9952  0.0017  0.0050 -0.0895
                                            0.0286  0.0251
   291. (0.00022) RY*( 2) H  21           s( 29.04%)p 2.44( 70.96%)
                                           -0.0046 -0.0803  0.2961  0.4430 -0.8407
                                            0.0501  0.0179
   292. (0.00016) RY*( 3) H  21           s( 90.22%)p 0.11(  9.78%)
                                            0.0031  0.0251  0.9210 -0.2309  0.1903
                                           -0.0859 -0.2327
   293. (0.00007) RY*( 4) H  21           s( 65.70%)p 0.52( 34.30%)
   294. (0.00006) RY*( 5) H  21           s(  5.80%)p16.23( 94.20%)
   295. (0.00003) RY*( 6) H  21           s( 10.21%)p 8.79( 89.79%)
   296. (0.00095) RY*( 1) H  22           s( 99.78%)p 0.00(  0.22%)
                                           -0.0014  0.9989  0.0007 -0.0003 -0.0233
                                            0.0400  0.0080
   297. (0.00018) RY*( 2) H  22           s( 64.10%)p 0.56( 35.90%)
                                            0.0097  0.0073  0.7849  0.1576  0.4693
                                            0.0029  0.3724
   298. (0.00015) RY*( 3) H  22           s( 81.35%)p 0.23( 18.65%)
                                           -0.0028  0.0000 -0.0685  0.8993 -0.3274
                                           -0.2181  0.1781
   299. (0.00012) RY*( 4) H  22           s( 26.13%)p 2.83( 73.87%)
                                           -0.0046 -0.0275  0.4326 -0.2709 -0.8140
                                            0.1553  0.2281
   300. (0.00006) RY*( 5) H  22           s(  7.09%)p13.10( 92.91%)
   301. (0.00007) RY*( 6) H  22           s( 21.58%)p 3.63( 78.42%)
   302. (0.00253) RY*( 1) O  23           s(  0.84%)p99.99( 95.77%)d 4.02(  3.39%)
                                            0.0000 -0.0048  0.0895 -0.0198  0.0005
                                            0.0186 -0.9296 -0.0191 -0.0089 -0.0006
                                            0.1930  0.1196 -0.0298 -0.0009  0.1986
                                           -0.0250 -0.0125  0.1764  0.0419 -0.0265
                                           -0.0112  0.0137
   303. (0.00135) RY*( 2) O  23           s(  4.18%)p22.19( 92.84%)d 0.71(  2.97%)
                                            0.0000  0.0068  0.1642  0.1218  0.0014
                                           -0.0068 -0.2586 -0.1106 -0.0214 -0.0193
                                           -0.4307 -0.2385  0.0290 -0.0160 -0.7660
                                           -0.1347 -0.0067  0.0473  0.0338  0.1562
                                           -0.0086  0.0438
   304. (0.00058) RY*( 3) O  23           s( 57.44%)p 0.62( 35.37%)d 0.13(  7.19%)
                                            0.0000 -0.0076  0.7444  0.1418  0.0046
                                            0.0001  0.1546  0.2080 -0.0289 -0.0061
                                            0.4761  0.1743  0.0175  0.0175 -0.1650
                                            0.0229 -0.0162  0.0418  0.0623  0.2478
                                           -0.0288  0.0636
   305. (0.00055) RY*( 4) O  23           s( 37.10%)p 1.48( 54.74%)d 0.22(  8.17%)
                                            0.0000 -0.0003  0.5002  0.3475 -0.0030
                                            0.0051  0.0296 -0.0596 -0.0003 -0.0168
                                           -0.5908  0.0304  0.0552 -0.0015  0.4349
                                           -0.0157  0.0158  0.0564 -0.0664 -0.2532
                                           -0.0753 -0.0656
   306. (0.00029) RY*( 5) O  23           s( 74.64%)p 0.26( 19.58%)d 0.08(  5.78%)
                                            0.0000  0.0021 -0.2930  0.8128  0.0020
                                           -0.0103  0.0041 -0.2051 -0.0210  0.0168
                                            0.1744  0.0658  0.0827  0.0104 -0.0451
                                            0.3267 -0.0492  0.1410 -0.0824  0.1030
                                            0.0642  0.1278
   307. (0.00012) RY*( 6) O  23           s( 11.50%)p 7.26( 83.44%)d 0.44(  5.06%)
                                            0.0000  0.0038 -0.2081  0.2674  0.0123
                                           -0.0014 -0.0176  0.4601 -0.1309  0.0087
                                           -0.0829  0.4998  0.0617 -0.0054 -0.0915
                                           -0.5694  0.1099 -0.1139  0.0057 -0.0565
                                            0.1638 -0.0870
   308. (0.00004) RY*( 7) O  23           s(  0.21%)p99.99( 87.46%)d58.15( 12.33%)
   309. (0.00004) RY*( 8) O  23           s(  5.05%)p18.22( 91.95%)d 0.59(  3.00%)
   310. (0.00004) RY*( 9) O  23           s(  0.73%)p22.35( 16.42%)d99.99( 82.85%)
   311. (0.00000) RY*(10) O  23           s( 99.95%)p 0.00(  0.04%)d 0.00(  0.01%)
   312. (0.00000) RY*(11) O  23           s(  0.08%)p99.99( 99.83%)d 1.11(  0.09%)
   313. (0.00000) RY*(12) O  23           s(  0.03%)p99.99( 99.44%)d19.83(  0.53%)
   314. (0.00001) RY*(13) O  23           s(  3.38%)p 5.12( 17.31%)d23.45( 79.31%)
   315. (0.00000) RY*(14) O  23           s(  0.56%)p 4.04(  2.28%)d99.99( 97.16%)
   316. (0.00000) RY*(15) O  23           s(  1.57%)p60.74( 95.48%)d 1.88(  2.95%)
   317. (0.00001) RY*(16) O  23           s(  1.85%)p 1.70(  3.15%)d51.31( 95.00%)
   318. (0.00000) RY*(17) O  23           s(  0.84%)p 6.15(  5.19%)d99.99( 93.97%)
   319. (0.00171) RY*( 1) H  24           s( 16.27%)p 5.15( 83.73%)
                                           -0.0015  0.2096  0.1543  0.3082  0.8885
                                           -0.0545 -0.2118
   320. (0.00125) RY*( 2) H  24           s( 29.72%)p 2.36( 70.28%)
                                           -0.0038  0.5091  0.0181 -0.1940 -0.0536
                                            0.8126 -0.1991
   321. (0.00046) RY*( 3) H  24           s( 85.49%)p 0.17( 14.51%)
                                           -0.0050  0.6531 -0.6372  0.1493 -0.0650
                                           -0.3129  0.2073
   322. (0.00034) RY*( 4) H  24           s( 80.15%)p 0.25( 19.85%)
                                            0.0064  0.5181  0.7032 -0.1962 -0.1991
                                           -0.3985  0.0068
   323. (0.00008) RY*( 5) H  24           s( 83.49%)p 0.20( 16.51%)
   324. (0.00002) RY*( 6) H  24           s(  5.00%)p18.98( 95.00%)
   325. (0.02054) BD*( 1) H   1 - O   2  
                ( 75.39%)   0.8682* H   1 s( 99.83%)p 0.00(  0.17%)
                                            0.9991  0.0089 -0.0006  0.0011  0.0301
                                           -0.0170 -0.0217
                ( 24.61%)  -0.4961* O   2 s( 22.11%)p 3.52( 77.79%)d 0.00(  0.10%)
                                           -0.0002  0.4701  0.0065  0.0040 -0.0003
                                           -0.6701  0.0083 -0.0010  0.0016  0.3799
                                           -0.0297  0.0051  0.0007  0.4285 -0.0068
                                           -0.0009 -0.0014 -0.0049 -0.0253  0.0037
                                            0.0171 -0.0006
   326. (0.04017) BD*( 1) O   2 - C   3  
                ( 33.53%)   0.5791* O   2 s( 33.14%)p 2.02( 66.79%)d 0.00(  0.08%)
                                            0.0001  0.5755  0.0077 -0.0112  0.0000
                                            0.0113 -0.0014  0.0019  0.0022 -0.8101
                                            0.0112  0.0065 -0.0002  0.1060  0.0034
                                           -0.0040 -0.0014  0.0072 -0.0044 -0.0115
                                           -0.0206 -0.0118
                ( 66.47%)  -0.8153* C   3 s( 22.47%)p 3.44( 77.31%)d 0.01(  0.22%)
                                           -0.0002  0.4730  0.0309  0.0001 -0.0011
                                           -0.0441  0.0000 -0.0006 -0.0033  0.8685
                                           -0.0279 -0.0057 -0.0063 -0.1243  0.0227
                                           -0.0001  0.0028 -0.0034 -0.0011 -0.0099
                                           -0.0406 -0.0219
   327. (0.08184) BD*( 1) C   3 - O   4  
                ( 68.86%)   0.8298* C   3 s( 19.99%)p 3.99( 79.74%)d 0.01(  0.27%)
                                            0.0000  0.4470  0.0062  0.0022 -0.0009
                                           -0.5037  0.0081  0.0015  0.0027 -0.3615
                                           -0.0188  0.0043  0.0010 -0.6410  0.0409
                                           -0.0022  0.0049  0.0233  0.0345  0.0280
                                            0.0069  0.0117
                ( 31.14%)  -0.5581* O   4 s( 30.32%)p 2.30( 69.62%)d 0.00(  0.06%)
                                           -0.0001  0.5506 -0.0094  0.0010 -0.0001
                                            0.4864 -0.0097 -0.0049  0.0007  0.3711
                                           -0.0202  0.0002  0.0013  0.5669  0.0006
                                           -0.0072 -0.0025  0.0062  0.0170  0.0083
                                            0.0031  0.0142
   328. (0.06193) BD*( 1) C   3 - C  16  
                ( 49.44%)   0.7031* C   3 s( 28.53%)p 2.50( 71.43%)d 0.00(  0.04%)
                                           -0.0003 -0.5338  0.0206  0.0009  0.0000
                                            0.3356  0.0159 -0.0051  0.0001  0.2004
                                            0.0244 -0.0095  0.0020 -0.7487 -0.0027
                                           -0.0001 -0.0038 -0.0015  0.0151  0.0068
                                           -0.0030 -0.0098
                ( 50.56%)  -0.7111* C  16 s( 25.99%)p 2.85( 73.96%)d 0.00(  0.05%)
                                           -0.0002 -0.5098  0.0095  0.0000 -0.0002
                                           -0.3874  0.0048  0.0025 -0.0009 -0.2695
                                            0.0199 -0.0038  0.0009  0.7185  0.0135
                                           -0.0052 -0.0007 -0.0041  0.0113  0.0090
                                            0.0010 -0.0157
   329. (0.05074) BD*( 1) C   3 - C  20  
                ( 49.15%)   0.7011* C   3 s( 28.82%)p 2.47( 71.14%)d 0.00(  0.04%)
                                            0.0000 -0.5368 -0.0001 -0.0001 -0.0006
                                           -0.7938 -0.0058  0.0039 -0.0033  0.2665
                                            0.0184 -0.0050  0.0033  0.0989 -0.0047
                                            0.0033 -0.0007  0.0098  0.0062  0.0005
                                           -0.0140  0.0081
                ( 50.85%)  -0.7131* C  20 s( 29.59%)p 2.38( 70.37%)d 0.00(  0.04%)
                                           -0.0004 -0.5439 -0.0064  0.0025 -0.0003
                                            0.8062  0.0003 -0.0066 -0.0011 -0.2032
                                            0.0138  0.0048  0.0009 -0.1101 -0.0086
                                            0.0029 -0.0005  0.0063  0.0035 -0.0001
                                           -0.0159  0.0090
   330. (0.03135) BD*( 1) O   4 - C   5  
                ( 32.43%)   0.5695* O   4 s( 29.12%)p 2.43( 70.81%)d 0.00(  0.06%)
                                            0.0001 -0.5392  0.0224 -0.0028  0.0001
                                            0.4312 -0.0103 -0.0028  0.0012  0.6647
                                           -0.0191 -0.0023 -0.0001 -0.2822 -0.0117
                                            0.0081  0.0021 -0.0127  0.0090  0.0180
                                            0.0077 -0.0006
                ( 67.57%)  -0.8220* C   5 s( 20.04%)p 3.98( 79.70%)d 0.01(  0.26%)
                                            0.0001 -0.4468 -0.0262 -0.0024  0.0006
                                           -0.4698  0.0169  0.0014  0.0005 -0.6800
                                            0.0143  0.0000  0.0047  0.3330 -0.0495
                                            0.0040 -0.0008 -0.0367  0.0158  0.0243
                                            0.0139  0.0155
   331. (0.02665) BD*( 1) C   5 - H   6  
                ( 39.97%)   0.6322* C   5 s( 23.71%)p 3.22( 76.23%)d 0.00(  0.06%)
                                            0.0002 -0.4866  0.0153 -0.0051  0.0001
                                           -0.3024  0.0011 -0.0067  0.0016  0.7190
                                            0.0245  0.0036  0.0038  0.3913  0.0050
                                            0.0031  0.0010  0.0133  0.0047 -0.0168
                                            0.0124  0.0027
                ( 60.03%)  -0.7748* H   6 s( 99.96%)p 0.00(  0.04%)
                                           -0.9998 -0.0027  0.0006 -0.0005  0.0063
                                           -0.0171 -0.0064
   332. (0.02988) BD*( 1) C   5 - C   7  
                ( 49.89%)   0.7064* C   5 s( 28.37%)p 2.52( 71.59%)d 0.00(  0.04%)
                                            0.0001  0.5324  0.0161 -0.0025  0.0004
                                           -0.8155  0.0047  0.0066 -0.0009  0.1196
                                            0.0089  0.0031  0.0009 -0.1896  0.0189
                                           -0.0008  0.0007 -0.0066  0.0064 -0.0009
                                            0.0153 -0.0082
                ( 50.11%)  -0.7079* C   7 s( 30.14%)p 2.32( 69.83%)d 0.00(  0.03%)
                                            0.0003  0.5488  0.0151 -0.0032  0.0002
                                            0.8082  0.0005 -0.0095  0.0016 -0.0818
                                            0.0039  0.0073 -0.0017  0.1950  0.0129
                                           -0.0011 -0.0007 -0.0012  0.0093  0.0005
                                            0.0136 -0.0067
   333. (0.04408) BD*( 1) C   5 - C  12  
                ( 49.08%)   0.7006* C   5 s( 27.89%)p 2.58( 72.08%)d 0.00(  0.03%)
                                           -0.0003 -0.5279  0.0116  0.0036  0.0002
                                           -0.1453 -0.0012  0.0052  0.0005  0.0371
                                           -0.0351  0.0045 -0.0001 -0.8349 -0.0058
                                            0.0050 -0.0010  0.0009 -0.0066 -0.0014
                                           -0.0022 -0.0165
                ( 50.92%)  -0.7136* C  12 s( 26.50%)p 2.77( 73.46%)d 0.00(  0.04%)
                                           -0.0002 -0.5148  0.0067  0.0019 -0.0001
                                            0.1738 -0.0074 -0.0031  0.0006  0.0302
                                           -0.0259  0.0055  0.0010  0.8382  0.0036
                                           -0.0034  0.0000 -0.0005 -0.0038  0.0027
                                           -0.0003 -0.0195
   334. (0.02072) BD*( 1) C   7 - H   8  
                ( 41.06%)   0.6408* C   7 s( 24.22%)p 3.13( 75.71%)d 0.00(  0.07%)
                                            0.0001 -0.4916  0.0223 -0.0016 -0.0001
                                            0.4614 -0.0005  0.0012 -0.0001  0.6982
                                            0.0100  0.0026  0.0013 -0.2378 -0.0124
                                           -0.0044  0.0004 -0.0183  0.0067  0.0125
                                            0.0079  0.0095
                ( 58.94%)  -0.7677* H   8 s( 99.96%)p 0.00(  0.04%)
                                           -0.9998 -0.0023  0.0002  0.0003 -0.0086
                                           -0.0166  0.0048
   335. (0.02232) BD*( 1) C   7 - H   9  
                ( 40.45%)   0.6360* C   7 s( 24.74%)p 3.04( 75.19%)d 0.00(  0.07%)
                                           -0.0001  0.4970 -0.0195  0.0010  0.0001
                                           -0.1182  0.0025 -0.0004 -0.0013  0.1395
                                            0.0038  0.0042 -0.0026 -0.8474 -0.0165
                                           -0.0024 -0.0023  0.0005  0.0055 -0.0090
                                            0.0007  0.0234
                ( 59.55%)  -0.7717* H   9 s( 99.97%)p 0.00(  0.03%)
                                            0.9998  0.0030  0.0000  0.0000 -0.0008
                                           -0.0030  0.0184
   336. (0.01557) BD*( 1) C   7 - O  10  
                ( 67.78%)   0.8233* C   7 s( 21.21%)p 3.70( 78.52%)d 0.01(  0.28%)
                                            0.0000  0.4574  0.0535  0.0019 -0.0009
                                           -0.3439  0.0276 -0.0002 -0.0003  0.6930
                                           -0.0411 -0.0011 -0.0046  0.4286 -0.0195
                                            0.0002 -0.0033 -0.0273 -0.0173  0.0356
                                           -0.0195 -0.0080
                ( 32.22%)  -0.5676* O  10 s( 30.99%)p 2.23( 68.95%)d 0.00(  0.06%)
                                            0.0000  0.5562  0.0202 -0.0069  0.0000
                                            0.2616 -0.0063  0.0000  0.0022 -0.6620
                                            0.0103  0.0086  0.0016 -0.4272  0.0050
                                            0.0053  0.0015 -0.0034 -0.0007  0.0214
                                           -0.0126 -0.0018
   337. (0.00556) BD*( 1) O  10 - H  11  
                ( 25.59%)   0.5059* O  10 s( 21.69%)p 3.61( 78.22%)d 0.00(  0.09%)
                                           -0.0001  0.4655 -0.0010  0.0120 -0.0001
                                           -0.8675  0.0166 -0.0068 -0.0002  0.1224
                                           -0.0230  0.0044  0.0011 -0.1163 -0.0149
                                            0.0029  0.0006  0.0033  0.0133  0.0023
                                            0.0237 -0.0121
                ( 74.41%)  -0.8626* H  11 s( 99.90%)p 0.00(  0.10%)
                                            0.9995 -0.0001  0.0019 -0.0001  0.0310
                                           -0.0076  0.0032
   338. (0.02411) BD*( 1) C  12 - H  13  
                ( 39.57%)   0.6290* C  12 s( 24.23%)p 3.12( 75.71%)d 0.00(  0.06%)
                                           -0.0002  0.4920 -0.0146  0.0051  0.0000
                                           -0.7267 -0.0347 -0.0050 -0.0056 -0.1342
                                            0.0126 -0.0016  0.0004  0.4578  0.0024
                                            0.0041  0.0024  0.0065 -0.0179 -0.0021
                                            0.0143 -0.0012
                ( 60.43%)  -0.7774* H  13 s( 99.97%)p 0.00(  0.03%)
                                            0.9998  0.0031 -0.0005  0.0007  0.0154
                                            0.0012 -0.0104
   339. (0.01814) BD*( 1) C  12 - O  14  
                ( 65.49%)   0.8092* C  12 s( 22.08%)p 3.52( 77.74%)d 0.01(  0.18%)
                                            0.0001 -0.4678 -0.0445 -0.0006  0.0007
                                           -0.5595  0.0014  0.0108  0.0065  0.6495
                                           -0.0511 -0.0049 -0.0064 -0.1956  0.0381
                                           -0.0012  0.0032  0.0345 -0.0082  0.0104
                                            0.0008  0.0199
                ( 34.51%)  -0.5875* O  14 s( 30.48%)p 2.28( 69.43%)d 0.00(  0.09%)
                                            0.0000 -0.5518 -0.0180  0.0007 -0.0001
                                            0.5126 -0.0146  0.0005  0.0015 -0.6229
                                            0.0034  0.0086  0.0003  0.2078  0.0036
                                           -0.0064 -0.0013  0.0175 -0.0058  0.0183
                                            0.0108  0.0086
   340. (0.03832) BD*( 1) C  12 - C  16  
                ( 50.19%)   0.7085* C  12 s( 27.05%)p 2.69( 72.91%)d 0.00(  0.04%)
                                            0.0002  0.5201 -0.0039 -0.0041  0.0001
                                            0.3522  0.0111 -0.0002  0.0012  0.7454
                                            0.0023 -0.0055  0.0002  0.2197 -0.0318
                                            0.0038  0.0016  0.0134  0.0002  0.0023
                                           -0.0109 -0.0083
                ( 49.81%)  -0.7057* C  16 s( 27.64%)p 2.62( 72.32%)d 0.00(  0.04%)
                                            0.0001  0.5257 -0.0007 -0.0037  0.0001
                                           -0.3594 -0.0085 -0.0009 -0.0015 -0.7624
                                            0.0114  0.0030 -0.0005 -0.1065 -0.0344
                                            0.0080  0.0009  0.0124  0.0040  0.0085
                                           -0.0089 -0.0061
   341. (0.02614) BD*( 1) O  14 - H  15  
                ( 24.30%)   0.4929* O  14 s( 23.79%)p 3.20( 76.11%)d 0.00(  0.10%)
                                            0.0001 -0.4878 -0.0043 -0.0019  0.0003
                                           -0.7580  0.0342 -0.0002  0.0004 -0.0505
                                           -0.0203  0.0026  0.0018  0.4270 -0.0023
                                           -0.0013 -0.0016 -0.0107  0.0247  0.0115
                                           -0.0118 -0.0008
                ( 75.70%)  -0.8701* H  15 s( 99.82%)p 0.00(  0.18%)
                                           -0.9991 -0.0070 -0.0008 -0.0013  0.0369
                                            0.0018 -0.0198
   342. (0.02282) BD*( 1) C  16 - H  17  
                ( 39.34%)   0.6272* C  16 s( 25.13%)p 2.98( 74.81%)d 0.00(  0.06%)
                                            0.0003 -0.5012  0.0116 -0.0061 -0.0001
                                           -0.5638 -0.0320 -0.0041 -0.0044  0.0124
                                            0.0100 -0.0005  0.0002 -0.6549 -0.0048
                                           -0.0051 -0.0035 -0.0015 -0.0203  0.0001
                                           -0.0079 -0.0090
                ( 60.66%)  -0.7789* H  17 s( 99.97%)p 0.00(  0.03%)
                                           -0.9998 -0.0026 -0.0008 -0.0004  0.0116
                                           -0.0021  0.0145
   343. (0.01740) BD*( 1) C  16 - O  18  
                ( 66.17%)   0.8135* C  16 s( 21.11%)p 3.73( 78.69%)d 0.01(  0.20%)
                                           -0.0002  0.4576  0.0413 -0.0031 -0.0009
                                           -0.6310  0.0113  0.0090  0.0060  0.5855
                                           -0.0360 -0.0050 -0.0049  0.2046 -0.0492
                                            0.0026 -0.0018 -0.0369 -0.0081  0.0091
                                            0.0057 -0.0207
                ( 33.83%)  -0.5816* O  18 s( 30.61%)p 2.26( 69.31%)d 0.00(  0.08%)
                                            0.0000  0.5530  0.0164 -0.0007  0.0001
                                            0.5852 -0.0129  0.0010  0.0013 -0.5579
                                            0.0042  0.0051  0.0014 -0.1975 -0.0107
                                            0.0061  0.0012 -0.0190 -0.0085  0.0170
                                           -0.0052 -0.0079
   344. (0.02712) BD*( 1) O  18 - H  19  
                ( 23.66%)   0.4864* O  18 s( 24.58%)p 3.06( 75.32%)d 0.00(  0.10%)
                                           -0.0001  0.4958  0.0030  0.0024 -0.0003
                                           -0.7402  0.0363 -0.0019  0.0005 -0.1335
                                           -0.0145  0.0038  0.0018 -0.4313 -0.0001
                                            0.0000  0.0018  0.0119  0.0235  0.0136
                                            0.0091  0.0020
                ( 76.34%)  -0.8738* H  19 s( 99.82%)p 0.00(  0.18%)
                                            0.9991  0.0062  0.0001  0.0007  0.0361
                                            0.0072  0.0199
   345. (0.01875) BD*( 1) C  20 - H  21  
                ( 40.21%)   0.6341* C  20 s( 24.85%)p 3.02( 75.08%)d 0.00(  0.06%)
                                            0.0001 -0.4982  0.0182 -0.0005  0.0002
                                           -0.3306  0.0081 -0.0008 -0.0016 -0.3664
                                           -0.0049  0.0016 -0.0005  0.7118  0.0220
                                            0.0037  0.0020 -0.0056  0.0120  0.0147
                                            0.0000 -0.0156
                ( 59.79%)  -0.7732* H  21 s( 99.97%)p 0.00(  0.03%)
                                           -0.9998 -0.0022 -0.0002  0.0002  0.0060
                                            0.0103 -0.0134
   346. (0.01648) BD*( 1) C  20 - H  22  
                ( 40.26%)   0.6345* C  20 s( 24.59%)p 3.06( 75.34%)d 0.00(  0.06%)
                                            0.0002 -0.4957  0.0132 -0.0036 -0.0002
                                           -0.4838  0.0082 -0.0007 -0.0015 -0.2215
                                           -0.0067  0.0047 -0.0023 -0.6853 -0.0223
                                           -0.0042 -0.0021 -0.0047 -0.0188 -0.0068
                                           -0.0064 -0.0135
                ( 59.74%)  -0.7729* H  22 s( 99.97%)p 0.00(  0.03%)
                                           -0.9998 -0.0016 -0.0004 -0.0002  0.0107
                                            0.0070  0.0134
   347. (0.01060) BD*( 1) C  20 - O  23  
                ( 67.63%)   0.8224* C  20 s( 21.16%)p 3.71( 78.57%)d 0.01(  0.28%)
                                           -0.0001  0.4570  0.0522 -0.0022 -0.0007
                                            0.0732 -0.0319  0.0047 -0.0023 -0.8755
                                            0.0548  0.0031  0.0062 -0.0980 -0.0065
                                            0.0008 -0.0019 -0.0033 -0.0023  0.0115
                                           -0.0446 -0.0250
                ( 32.37%)  -0.5690* O  23 s( 31.33%)p 2.19( 68.60%)d 0.00(  0.07%)
                                            0.0000  0.5593  0.0209 -0.0048  0.0001
                                           -0.0564 -0.0084  0.0066  0.0005  0.8238
                                           -0.0100 -0.0072 -0.0007  0.0620 -0.0062
                                            0.0056  0.0022 -0.0081  0.0018 -0.0063
                                           -0.0211 -0.0100
   348. (0.00715) BD*( 1) O  23 - H  24  
                ( 25.82%)   0.5082* O  23 s( 21.23%)p 3.71( 78.68%)d 0.00(  0.10%)
                                           -0.0001  0.4606  0.0042  0.0086 -0.0002
                                           -0.2349  0.0048 -0.0006  0.0006 -0.2669
                                            0.0260 -0.0048 -0.0009 -0.8119  0.0212
                                           -0.0059  0.0014  0.0011  0.0170  0.0021
                                            0.0019  0.0258
                ( 74.18%)  -0.8613* H  24 s( 99.88%)p 0.00(  0.12%)
                                            0.9994  0.0024 -0.0017  0.0002  0.0097
                                            0.0116  0.0318


 NHO Directionality and "Bond Bending" (deviations from line of nuclear centers)

         [Thresholds for printing:  angular deviation  >  1.0 degree]
                                    hybrid p-character > 25.0%
                                    orbital occupancy  >  0.10e

                                Line of Centers        Hybrid 1              Hybrid 2
                                ---------------  -------------------   ------------------
                NBO               Theta   Phi    Theta   Phi    Dev    Theta   Phi    Dev
 ========================================================================================
     1. BD (   1) H   1 - O   2   121.3  335.3     --     --    --      60.8  151.7   3.7
     2. BD (   1) O   2 - C   3    82.5  270.3     --     --    --      96.8   93.3   3.1
     3. BD (   1) C   3 - O   4   134.2  217.9     --     --    --      46.6   36.7   1.2
     4. BD (   1) C   3 - C  16    30.2  211.8    28.4  212.1   1.8    147.8   33.5   2.2
     5. BD (   1) C   3 - C  20    96.9  343.0    96.5  340.5   2.6     81.9  167.1   4.2
     6. BD (   1) O   4 - C   5    68.4  236.1    69.7  236.9   1.5    109.7   55.7   2.0
     7. BD (   1) C   5 - H   6   115.3  290.6   116.3  292.2   1.8      --     --    --
     8. BD (   1) C   5 - C   7   102.8  173.2   101.8  170.7   2.7     75.6  354.8   2.3
     9. BD (   1) C   5 - C  12    11.3  348.5     9.6  357.4   2.3    168.9  183.8   3.0
    10. BD (   1) C   7 - H   8    74.6  239.2    73.3  237.0   2.4      --     --    --
    11. BD (   1) C   7 - H   9   170.0  125.8   167.9  129.0   2.2      --     --    --
    12. BD (   1) C   7 - O  10    59.9  113.5    60.6  116.1   2.3    121.0  291.9   1.7
    13. BD (   1) O  10 - H  11    99.0  173.9    98.4  173.0   1.1      --     --    --
    14. BD (   1) C  12 - H  13    58.1  189.0    59.2  189.0   1.1      --     --    --
    15. BD (   1) C  12 - O  14    75.6  309.4    79.0  312.7   4.7      --     --    --
    16. BD (   1) C  12 - C  16    79.1   66.9    76.8   63.9   3.7     99.0  243.7   3.7
    17. BD (   1) O  14 - H  15   121.5    7.8   120.1    5.2   2.6      --     --    --
    19. BD (   1) C  16 - O  18    76.1  136.1    79.1  138.3   3.6      --     --    --
    20. BD (   1) O  18 - H  19   121.7  194.0   120.8  191.4   2.4      --     --    --
    21. BD (   1) C  20 - H  21   144.5   51.7   146.3   48.7   2.5      --     --    --
    22. BD (   1) C  20 - H  22    37.5   27.0    36.5   25.3   1.4      --     --    --
    23. BD (   1) C  20 - O  23    94.9  274.6    97.4  273.1   2.9      --     --    --
    24. BD (   1) O  23 - H  24   158.1  223.3   157.0  227.0   1.8      --     --    --
    37. LP (   1) O   2             --     --    123.6   43.5   --       --     --    --
    38. LP (   2) O   2             --     --     37.4   11.9   --       --     --    --
    39. LP (   1) O   4             --     --    166.4   83.5   --       --     --    --
    40. LP (   2) O   4             --     --     78.9  141.1   --       --     --    --
    41. LP (   1) O  10             --     --    107.5   61.5   --       --     --    --
    42. LP (   2) O  10             --     --     11.1  322.9   --       --     --    --
    43. LP (   1) O  14             --     --     46.4  258.0   --       --     --    --
    44. LP (   2) O  14             --     --    135.9  236.6   --       --     --    --
    45. LP (   1) O  18             --     --     44.6   85.6   --       --     --    --
    46. LP (   2) O  18             --     --    134.8   62.8   --       --     --    --
    47. LP (   1) O  23             --     --     61.2  319.7   --       --     --    --
    48. LP (   2) O  23             --     --     62.2  196.3   --       --     --    --


 Second Order Perturbation Theory Analysis of Fock Matrix in NBO Basis

     Threshold for printing:   0.50 kcal/mol
                                                                              E(2)  E(j)-E(i) F(i,j)
         Donor NBO (i)                     Acceptor NBO (j)                 kcal/mol   a.u.    a.u. 
 ===================================================================================================

 within unit  1
   1. BD (   1) H   1 - O   2        / 72. RY*(   1) C   3                    2.61    1.81    0.061
   1. BD (   1) H   1 - O   2        / 73. RY*(   2) C   3                    0.89    1.94    0.037
   1. BD (   1) H   1 - O   2        / 77. RY*(   6) C   3                    0.63    2.57    0.036
   1. BD (   1) H   1 - O   2        /328. BD*(   1) C   3 - C  16            0.81    1.20    0.028
   1. BD (   1) H   1 - O   2        /329. BD*(   1) C   3 - C  20            2.82    1.23    0.053
   2. BD (   1) O   2 - C   3        / 72. RY*(   1) C   3                    0.51    1.98    0.029
   2. BD (   1) O   2 - C   3        /330. BD*(   1) O   4 - C   5            0.96    1.33    0.032
   2. BD (   1) O   2 - C   3        /347. BD*(   1) C  20 - O  23            1.75    1.33    0.043
   3. BD (   1) C   3 - O   4        /107. RY*(   2) C   5                    0.93    1.74    0.036
   3. BD (   1) C   3 - O   4        /108. RY*(   3) C   5                    0.76    1.83    0.033
   3. BD (   1) C   3 - O   4        /110. RY*(   5) C   5                    0.63    2.41    0.035
   3. BD (   1) C   3 - O   4        /332. BD*(   1) C   5 - C   7            0.79    1.35    0.029
   3. BD (   1) C   3 - O   4        /342. BD*(   1) C  16 - H  17            0.93    1.39    0.032
   3. BD (   1) C   3 - O   4        /346. BD*(   1) C  20 - H  22            0.89    1.37    0.031
   4. BD (   1) C   3 - C  16        / 56. RY*(   2) O   2                    0.65    1.44    0.027
   4. BD (   1) C   3 - C  16        / 90. RY*(   2) O   4                    0.60    1.16    0.024
   4. BD (   1) C   3 - C  16        /185. RY*(   5) C  12                    0.66    1.87    0.031
   4. BD (   1) C   3 - C  16        /250. RY*(   1) O  18                    0.81    1.37    0.030
   4. BD (   1) C   3 - C  16        /273. RY*(   1) C  20                    0.95    1.57    0.035
   4. BD (   1) C   3 - C  16        /329. BD*(   1) C   3 - C  20            0.82    1.12    0.027
   4. BD (   1) C   3 - C  16        /338. BD*(   1) C  12 - H  13            1.76    1.16    0.040
   4. BD (   1) C   3 - C  16        /340. BD*(   1) C  12 - C  16            0.52    1.12    0.022
   4. BD (   1) C   3 - C  16        /345. BD*(   1) C  20 - H  21            1.20    1.14    0.033
   5. BD (   1) C   3 - C  20        / 55. RY*(   1) O   2                    1.12    1.57    0.038
   5. BD (   1) C   3 - C  20        / 89. RY*(   1) O   4                    0.97    1.48    0.034
   5. BD (   1) C   3 - C  20        /228. RY*(   2) C  16                    1.05    1.64    0.037
   5. BD (   1) C   3 - C  20        /302. RY*(   1) O  23                    1.05    1.52    0.036
   5. BD (   1) C   3 - C  20        /325. BD*(   1) H   1 - O   2            2.28    1.22    0.047
   5. BD (   1) C   3 - C  20        /328. BD*(   1) C   3 - C  16            0.59    1.11    0.023
   5. BD (   1) C   3 - C  20        /330. BD*(   1) O   4 - C   5            0.95    1.07    0.029
   5. BD (   1) C   3 - C  20        /343. BD*(   1) C  16 - O  18            1.60    1.08    0.037
   6. BD (   1) O   4 - C   5        / 72. RY*(   1) C   3                    1.31    1.91    0.045
   6. BD (   1) O   4 - C   5        / 74. RY*(   3) C   3                    0.87    2.04    0.038
   6. BD (   1) O   4 - C   5        / 77. RY*(   6) C   3                    0.60    2.67    0.036
   6. BD (   1) O   4 - C   5        /326. BD*(   1) O   2 - C   3            1.75    1.31    0.043
   6. BD (   1) O   4 - C   5        /334. BD*(   1) C   7 - H   8            0.96    1.34    0.032
   6. BD (   1) O   4 - C   5        /338. BD*(   1) C  12 - H  13            0.58    1.37    0.025
   7. BD (   1) C   5 - H   6        / 89. RY*(   1) O   4                    0.65    1.37    0.027
   7. BD (   1) C   5 - H   6        /327. BD*(   1) C   3 - O   4            1.20    0.94    0.030
   7. BD (   1) C   5 - H   6        /336. BD*(   1) C   7 - O  10            4.61    0.93    0.058
   7. BD (   1) C   5 - H   6        /338. BD*(   1) C  12 - H  13            0.51    1.06    0.021
   7. BD (   1) C   5 - H   6        /339. BD*(   1) C  12 - O  14            1.99    0.97    0.039
   7. BD (   1) C   5 - H   6        /340. BD*(   1) C  12 - C  16            0.86    1.02    0.026
   8. BD (   1) C   5 - C   7        / 89. RY*(   1) O   4                    1.49    1.50    0.042
   8. BD (   1) C   5 - C   7        /158. RY*(   1) O  10                    0.71    1.73    0.031
   8. BD (   1) C   5 - C   7        /182. RY*(   2) C  12                    1.50    1.65    0.045
   8. BD (   1) C   5 - C   7        /327. BD*(   1) C   3 - O   4            1.42    1.07    0.035
   8. BD (   1) C   5 - C   7        /333. BD*(   1) C   5 - C  12            0.54    1.13    0.022
   8. BD (   1) C   5 - C   7        /335. BD*(   1) C   7 - H   9            0.55    1.16    0.023
   8. BD (   1) C   5 - C   7        /337. BD*(   1) O  10 - H  11            2.03    1.20    0.044
   8. BD (   1) C   5 - C   7        /339. BD*(   1) C  12 - O  14            1.42    1.10    0.035
   9. BD (   1) C   5 - C  12        / 90. RY*(   2) O   4                    0.66    1.16    0.025
   9. BD (   1) C   5 - C  12        /130. RY*(   2) C   7                    1.04    1.58    0.036
   9. BD (   1) C   5 - C  12        /204. RY*(   1) O  14                    0.69    1.41    0.028
   9. BD (   1) C   5 - C  12        /328. BD*(   1) C   3 - C  16            0.57    1.09    0.022
   9. BD (   1) C   5 - C  12        /332. BD*(   1) C   5 - C   7            0.80    1.13    0.027
   9. BD (   1) C   5 - C  12        /335. BD*(   1) C   7 - H   9            1.49    1.13    0.037
   9. BD (   1) C   5 - C  12        /342. BD*(   1) C  16 - H  17            1.87    1.16    0.042
  10. BD (   1) C   7 - H   8        /106. RY*(   1) C   5                    0.51    1.59    0.025
  10. BD (   1) C   7 - H   8        /330. BD*(   1) O   4 - C   5            5.07    0.96    0.062
  11. BD (   1) C   7 - H   9        /330. BD*(   1) O   4 - C   5            1.11    0.96    0.029
  11. BD (   1) C   7 - H   9        /333. BD*(   1) C   5 - C  12            3.26    1.00    0.051
  12. BD (   1) C   7 - O  10        /108. RY*(   3) C   5                    0.64    1.86    0.031
  12. BD (   1) C   7 - O  10        /331. BD*(   1) C   5 - H   6            1.20    1.40    0.037
  13. BD (   1) O  10 - H  11        /106. RY*(   1) C   5                    1.02    1.83    0.039
  13. BD (   1) O  10 - H  11        /129. RY*(   1) C   7                    0.86    1.89    0.036
  13. BD (   1) O  10 - H  11        /131. RY*(   3) C   7                    0.57    1.93    0.030
  13. BD (   1) O  10 - H  11        /332. BD*(   1) C   5 - C   7            2.04    1.28    0.046
  14. BD (   1) C  12 - H  13        /205. RY*(   2) O  14                    0.57    1.44    0.026
  14. BD (   1) C  12 - H  13        /328. BD*(   1) C   3 - C  16            1.43    0.98    0.034
  14. BD (   1) C  12 - H  13        /330. BD*(   1) O   4 - C   5            1.87    0.94    0.037
  14. BD (   1) C  12 - H  13        /341. BD*(   1) O  14 - H  15            2.88    1.10    0.050
  14. BD (   1) C  12 - H  13        /343. BD*(   1) C  16 - O  18            1.47    0.95    0.034
  15. BD (   1) C  12 - O  14        /181. RY*(   1) C  12                    0.65    1.80    0.031
  15. BD (   1) C  12 - O  14        /223. RY*(   3) H  15                    0.82    2.90    0.044
  15. BD (   1) C  12 - O  14        /228. RY*(   2) C  16                    0.60    1.86    0.030
  15. BD (   1) C  12 - O  14        /332. BD*(   1) C   5 - C   7            0.71    1.36    0.028
  15. BD (   1) C  12 - O  14        /343. BD*(   1) C  16 - O  18            1.47    1.29    0.039
  16. BD (   1) C  12 - C  16        / 74. RY*(   3) C   3                    0.73    1.83    0.033
  16. BD (   1) C  12 - C  16        /106. RY*(   1) C   5                    0.60    1.68    0.028
  16. BD (   1) C  12 - C  16        /204. RY*(   1) O  14                    0.90    1.41    0.032
  16. BD (   1) C  12 - C  16        /251. RY*(   2) O  18                    0.52    1.42    0.024
  16. BD (   1) C  12 - C  16        /326. BD*(   1) O   2 - C   3            2.74    1.09    0.049
  16. BD (   1) C  12 - C  16        /327. BD*(   1) C   3 - O   4            1.44    1.04    0.035
  16. BD (   1) C  12 - C  16        /330. BD*(   1) O   4 - C   5            1.95    1.04    0.040
  16. BD (   1) C  12 - C  16        /331. BD*(   1) C   5 - H   6            1.30    1.15    0.035
  16. BD (   1) C  12 - C  16        /338. BD*(   1) C  12 - H  13            0.55    1.15    0.023
  16. BD (   1) C  12 - C  16        /342. BD*(   1) C  16 - H  17            0.59    1.16    0.023
  17. BD (   1) O  14 - H  15        /181. RY*(   1) C  12                    3.81    1.68    0.072
  17. BD (   1) O  14 - H  15        /184. RY*(   4) C  12                    0.95    2.00    0.039
  17. BD (   1) O  14 - H  15        /338. BD*(   1) C  12 - H  13            2.42    1.27    0.050
  18. BD (   1) C  16 - H  17        / 74. RY*(   3) C   3                    0.55    1.72    0.028
  18. BD (   1) C  16 - H  17        /327. BD*(   1) C   3 - O   4            2.67    0.94    0.045
  18. BD (   1) C  16 - H  17        /333. BD*(   1) C   5 - C  12            1.53    0.99    0.035
  18. BD (   1) C  16 - H  17        /339. BD*(   1) C  12 - O  14            1.36    0.96    0.032
  18. BD (   1) C  16 - H  17        /344. BD*(   1) O  18 - H  19            2.52    1.10    0.047
  19. BD (   1) C  16 - O  18        /269. RY*(   3) H  19                    0.87    2.79    0.044
  19. BD (   1) C  16 - O  18        /329. BD*(   1) C   3 - C  20            1.41    1.35    0.039
  19. BD (   1) C  16 - O  18        /339. BD*(   1) C  12 - O  14            1.40    1.31    0.038
  20. BD (   1) O  18 - H  19        /227. RY*(   1) C  16                    3.23    1.73    0.067
  20. BD (   1) O  18 - H  19        /228. RY*(   2) C  16                    1.00    1.75    0.037
  20. BD (   1) O  18 - H  19        /230. RY*(   4) C  16                    0.53    2.30    0.031
  20. BD (   1) O  18 - H  19        /340. BD*(   1) C  12 - C  16            0.60    1.25    0.024
  20. BD (   1) O  18 - H  19        /342. BD*(   1) C  16 - H  17            2.00    1.29    0.045
  21. BD (   1) C  20 - H  21        /326. BD*(   1) O   2 - C   3            1.01    0.99    0.028
  21. BD (   1) C  20 - H  21        /328. BD*(   1) C   3 - C  16            3.62    0.99    0.054
  22. BD (   1) C  20 - H  22        / 74. RY*(   3) C   3                    0.64    1.73    0.030
  22. BD (   1) C  20 - H  22        /327. BD*(   1) C   3 - O   4            4.74    0.94    0.061
  22. BD (   1) C  20 - H  22        /348. BD*(   1) O  23 - H  24            2.57    1.07    0.047
  23. BD (   1) C  20 - O  23        /326. BD*(   1) O   2 - C   3            1.73    1.34    0.043
  24. BD (   1) O  23 - H  24        /273. RY*(   1) C  20                    3.16    1.70    0.066
  24. BD (   1) O  23 - H  24        /345. BD*(   1) C  20 - H  21            0.92    1.28    0.031
  24. BD (   1) O  23 - H  24        /346. BD*(   1) C  20 - H  22            1.93    1.28    0.044
  25. CR (   1) O   2                / 49. RY*(   1) H   1                    0.71   21.00    0.109
  25. CR (   1) O   2                / 72. RY*(   1) C   3                    2.40   20.40    0.198
  25. CR (   1) O   2                / 73. RY*(   2) C   3                    1.10   20.53    0.134
  26. CR (   1) C   3                /229. RY*(   3) C  16                    0.56   11.72    0.072
  26. CR (   1) C   3                /330. BD*(   1) O   4 - C   5            0.90   10.88    0.089
  27. CR (   1) O   4                / 72. RY*(   1) C   3                    0.66   20.42    0.104
  27. CR (   1) O   4                / 73. RY*(   2) C   3                    1.20   20.55    0.140
  27. CR (   1) O   4                /107. RY*(   2) C   5                    1.48   20.24    0.154
  28. CR (   1) C   5                /185. RY*(   5) C  12                    0.74   11.65    0.083
  28. CR (   1) C   5                /327. BD*(   1) C   3 - O   4            0.79   10.82    0.085
  28. CR (   1) C   5                /330. BD*(   1) O   4 - C   5            0.99   10.83    0.093
  29. CR (   1) C   7                /106. RY*(   1) C   5                    0.53   11.46    0.070
  29. CR (   1) C   7                /108. RY*(   3) C   5                    0.70   11.39    0.080
  29. CR (   1) C   7                /336. BD*(   1) C   7 - O  10            1.50   10.81    0.114
  30. CR (   1) O  10                /129. RY*(   1) C   7                    1.75   20.51    0.169
  30. CR (   1) O  10                /178. RY*(   4) H  11                    0.71   21.07    0.109
  31. CR (   1) C  12                /108. RY*(   3) C   5                    0.85   11.38    0.088
  31. CR (   1) C  12                /232. RY*(   6) C  16                    0.71   11.55    0.081
  31. CR (   1) C  12                /339. BD*(   1) C  12 - O  14            0.99   10.85    0.093
  32. CR (   1) O  14                /181. RY*(   1) C  12                    2.12   20.27    0.185
  32. CR (   1) O  14                /221. RY*(   1) H  15                    0.56   20.84    0.096
  32. CR (   1) O  14                /223. RY*(   3) H  15                    0.65   21.37    0.105
  33. CR (   1) C  16                / 72. RY*(   1) C   3                    0.67   11.47    0.078
  33. CR (   1) C  16                / 74. RY*(   3) C   3                    0.68   11.60    0.079
  33. CR (   1) C  16                /343. BD*(   1) C  16 - O  18            1.01   10.83    0.094
  34. CR (   1) O  18                /227. RY*(   1) C  16                    2.21   20.32    0.190
  34. CR (   1) O  18                /267. RY*(   1) H  19                    0.73   21.02    0.111
  35. CR (   1) C  20                / 74. RY*(   3) C   3                    1.36   11.60    0.112
  35. CR (   1) C  20                / 75. RY*(   4) C   3                    0.58   11.95    0.074
  35. CR (   1) C  20                /347. BD*(   1) C  20 - O  23            1.43   10.82    0.111
  36. CR (   1) O  23                /273. RY*(   1) C  20                    1.75   20.32    0.169
  36. CR (   1) O  23                /321. RY*(   3) H  24                    0.55   20.95    0.096
  37. LP (   1) O   2                / 49. RY*(   1) H   1                    1.05    2.29    0.044
  37. LP (   1) O   2                / 72. RY*(   1) C   3                    4.04    1.69    0.074
  37. LP (   1) O   2                / 73. RY*(   2) C   3                    1.99    1.82    0.054
  37. LP (   1) O   2                /328. BD*(   1) C   3 - C  16            3.97    1.09    0.059
  37. LP (   1) O   2                /329. BD*(   1) C   3 - C  20            1.01    1.11    0.030
  37. LP (   1) O   2                /347. BD*(   1) C  20 - O  23            0.51    1.04    0.021
  38. LP (   2) O   2                / 50. RY*(   2) H   1                    1.80    2.01    0.055
  38. LP (   2) O   2                / 73. RY*(   2) C   3                    1.41    1.51    0.042
  38. LP (   2) O   2                / 75. RY*(   4) C   3                    0.70    1.86    0.033
  38. LP (   2) O   2                /327. BD*(   1) C   3 - O   4           22.22    0.73    0.113
  38. LP (   2) O   2                /328. BD*(   1) C   3 - C  16            2.45    0.78    0.039
  38. LP (   2) O   2                /329. BD*(   1) C   3 - C  20            1.86    0.80    0.035
  38. LP (   2) O   2                /347. BD*(   1) C  20 - O  23            0.54    0.73    0.018
  39. LP (   1) O   4                / 72. RY*(   1) C   3                    1.43    1.66    0.044
  39. LP (   1) O   4                / 73. RY*(   2) C   3                    1.99    1.79    0.054
  39. LP (   1) O   4                / 75. RY*(   4) C   3                    0.59    2.14    0.032
  39. LP (   1) O   4                /106. RY*(   1) C   5                    0.58    1.63    0.028
  39. LP (   1) O   4                /107. RY*(   2) C   5                    3.03    1.47    0.060
  39. LP (   1) O   4                /326. BD*(   1) O   2 - C   3            1.54    1.05    0.036
  39. LP (   1) O   4                /328. BD*(   1) C   3 - C  16            2.79    1.05    0.049
  39. LP (   1) O   4                /331. BD*(   1) C   5 - H   6            0.54    1.11    0.022
  39. LP (   1) O   4                /333. BD*(   1) C   5 - C  12            3.25    1.05    0.052
  40. LP (   2) O   4                / 76. RY*(   5) C   3                    1.02    1.95    0.041
  40. LP (   2) O   4                /108. RY*(   3) C   5                    0.54    1.30    0.024
  40. LP (   2) O   4                /109. RY*(   4) C   5                    1.18    1.82    0.042
  40. LP (   2) O   4                /326. BD*(   1) O   2 - C   3            6.58    0.79    0.065
  40. LP (   2) O   4                /328. BD*(   1) C   3 - C  16            0.78    0.78    0.022
  40. LP (   2) O   4                /329. BD*(   1) C   3 - C  20            7.48    0.81    0.070
  40. LP (   2) O   4                /331. BD*(   1) C   5 - H   6            7.34    0.84    0.071
  40. LP (   2) O   4                /332. BD*(   1) C   5 - C   7            5.29    0.82    0.060
  40. LP (   2) O   4                /334. BD*(   1) C   7 - H   8            0.69    0.82    0.021
  40. LP (   2) O   4                /346. BD*(   1) C  20 - H  22            0.84    0.84    0.024
  41. LP (   1) O  10                /129. RY*(   1) C   7                    0.97    1.63    0.036
  41. LP (   1) O  10                /132. RY*(   4) C   7                    0.72    2.34    0.037
  41. LP (   1) O  10                /175. RY*(   1) H  11                    1.51    2.16    0.051
  41. LP (   1) O  10                /332. BD*(   1) C   5 - C   7            0.62    1.02    0.022
  41. LP (   1) O  10                /334. BD*(   1) C   7 - H   8            5.47    1.01    0.067
  41. LP (   1) O  10                /335. BD*(   1) C   7 - H   9            1.42    1.02    0.034
  41. LP (   1) O  10                /344. BD*(   1) O  18 - H  19            4.63    1.09    0.064
  42. LP (   2) O  10                /129. RY*(   1) C   7                    1.87    1.63    0.050
  42. LP (   2) O  10                /175. RY*(   1) H  11                    0.50    2.16    0.030
  42. LP (   2) O  10                /176. RY*(   2) H  11                    1.17    2.36    0.047
  42. LP (   2) O  10                /332. BD*(   1) C   5 - C   7            1.00    1.02    0.029
  42. LP (   2) O  10                /334. BD*(   1) C   7 - H   8            0.90    1.02    0.027
  42. LP (   2) O  10                /335. BD*(   1) C   7 - H   9            5.19    1.02    0.065
  42. LP (   2) O  10                /344. BD*(   1) O  18 - H  19            8.80    1.09    0.088
  43. LP (   1) O  14                /181. RY*(   1) C  12                    3.78    1.55    0.069
  43. LP (   1) O  14                /221. RY*(   1) H  15                    1.57    2.12    0.052
  43. LP (   1) O  14                /333. BD*(   1) C   5 - C  12            1.95    1.08    0.041
  43. LP (   1) O  14                /338. BD*(   1) C  12 - H  13            3.27    1.14    0.055
  43. LP (   1) O  14                /340. BD*(   1) C  12 - C  16            1.11    1.10    0.031
  44. LP (   2) O  14                /183. RY*(   3) C  12                    1.35    1.76    0.044
  44. LP (   2) O  14                /222. RY*(   2) H  15                    1.68    2.03    0.053
  44. LP (   2) O  14                /333. BD*(   1) C   5 - C  12            7.30    0.78    0.067
  44. LP (   2) O  14                /340. BD*(   1) C  12 - C  16            7.93    0.80    0.071
  44. LP (   2) O  14                /343. BD*(   1) C  16 - O  18            0.95    0.74    0.024
  45. LP (   1) O  18                /227. RY*(   1) C  16                    3.21    1.59    0.064
  45. LP (   1) O  18                /267. RY*(   1) H  19                    1.78    2.30    0.057
  45. LP (   1) O  18                /340. BD*(   1) C  12 - C  16            2.17    1.11    0.044
  45. LP (   1) O  18                /342. BD*(   1) C  16 - H  17            2.83    1.15    0.051
  46. LP (   2) O  18                /229. RY*(   3) C  16                    0.83    1.59    0.033
  46. LP (   2) O  18                /232. RY*(   6) C  16                    0.65    1.48    0.028
  46. LP (   2) O  18                /268. RY*(   2) H  19                    1.56    2.05    0.051
  46. LP (   2) O  18                /325. BD*(   1) H   1 - O   2            4.18    0.89    0.055
  46. LP (   2) O  18                /328. BD*(   1) C   3 - C  16            9.01    0.79    0.075
  46. LP (   2) O  18                /329. BD*(   1) C   3 - C  20            0.84    0.81    0.023
  46. LP (   2) O  18                /340. BD*(   1) C  12 - C  16            3.61    0.81    0.049
  46. LP (   2) O  18                /342. BD*(   1) C  16 - H  17            1.12    0.86    0.028
  47. LP (   1) O  23                /273. RY*(   1) C  20                    2.34    1.57    0.054
  47. LP (   1) O  23                /320. RY*(   2) H  24                    1.09    2.58    0.048
  47. LP (   1) O  23                /329. BD*(   1) C   3 - C  20            1.51    1.12    0.037
  47. LP (   1) O  23                /341. BD*(   1) O  14 - H  15            2.59    1.21    0.050
  47. LP (   1) O  23                /346. BD*(   1) C  20 - H  22            3.10    1.15    0.053
  48. LP (   2) O  23                /274. RY*(   2) C  20                    0.77    1.60    0.032
  48. LP (   2) O  23                /276. RY*(   4) C  20                    0.96    1.61    0.036
  48. LP (   2) O  23                /319. RY*(   1) H  24                    1.59    1.91    0.050
  48. LP (   2) O  23                /326. BD*(   1) O   2 - C   3            1.02    0.85    0.026
  48. LP (   2) O  23                /329. BD*(   1) C   3 - C  20            5.50    0.87    0.062
  48. LP (   2) O  23                /341. BD*(   1) O  14 - H  15            8.67    0.97    0.082
  48. LP (   2) O  23                /345. BD*(   1) C  20 - H  21            5.15    0.90    0.061


 Natural Bond Orbitals (Summary):

                                                            Principal Delocalizations
           NBO                        Occupancy    Energy   (geminal,vicinal,remote)
 ====================================================================================
 Molecular unit  1  (C6H12O6)
     1. BD (   1) H   1 - O   2          1.98580    -0.80713  329(v),72(v),73(v),328(v)
                                                    77(v)
     2. BD (   1) O   2 - C   3          1.99066    -0.98181  347(v),330(v),72(g)
     3. BD (   1) C   3 - O   4          1.98909    -0.91989  342(v),107(v),346(v),332(v)
                                                    108(v),110(v),333(v)
     4. BD (   1) C   3 - C  16          1.97793    -0.69603  338(v),345(v),273(v),329(g)
                                                    250(v),185(v),56(v),90(v)
                                                    340(g)
     5. BD (   1) C   3 - C  20          1.97989    -0.71524  325(v),343(v),55(v),228(v)
                                                    302(v),89(v),330(v),328(g)
     6. BD (   1) O   4 - C   5          1.98697    -0.90851  326(v),72(v),334(v),74(v)
                                                    77(v),338(v)
     7. BD (   1) C   5 - H   6          1.97444    -0.59532  336(v),339(v),327(v),340(v)
                                                    89(v),338(v)
     8. BD (   1) C   5 - C   7          1.98106    -0.72744  337(v),182(v),89(v),327(v)
                                                    339(v),158(v),335(g),333(g)
     9. BD (   1) C   5 - C  12          1.98004    -0.69444  342(v),335(v),130(v),332(g)
                                                    204(v),90(v),328(v)
    10. BD (   1) C   7 - H   8          1.98267    -0.60813  330(v),106(v)
    11. BD (   1) C   7 - H   9          1.98536    -0.60476  333(v),330(v)
    12. BD (   1) C   7 - O  10          1.99499    -0.94919  331(v),108(v)
    13. BD (   1) O  10 - H  11          1.98997    -0.84542  332(v),106(r),129(v),131(v)
    14. BD (   1) C  12 - H  13          1.97730    -0.58785  341(v),330(v),343(v),328(v)
                                                    205(v)
    15. BD (   1) C  12 - O  14          1.99116    -0.92855  343(v),223(v),332(v),181(g)
                                                    228(v)
    16. BD (   1) C  12 - C  16          1.97533    -0.69425  326(v),330(v),327(v),331(v)
                                                    204(v),74(v),106(v),342(g)
                                                    338(g),251(v)
    17. BD (   1) O  14 - H  15          1.98769    -0.81071  181(v),338(v),184(v)
    18. BD (   1) C  16 - H  17          1.97678    -0.58940  327(v),344(v),333(v),339(v)
                                                    74(v)
    19. BD (   1) C  16 - O  18          1.99059    -0.93241  329(v),339(v),269(v)
    20. BD (   1) O  18 - H  19          1.98777    -0.82509  227(v),342(v),228(v),340(v)
                                                    230(v)
    21. BD (   1) C  20 - H  21          1.98579    -0.59286  328(v),326(v)
    22. BD (   1) C  20 - H  22          1.97992    -0.59294  327(v),348(v),74(v)
    23. BD (   1) C  20 - O  23          1.99423    -0.94510  326(v)
    24. BD (   1) O  23 - H  24          1.98962    -0.82942  273(v),346(v),345(v)
    25. CR (   1) O   2                  1.99975   -19.39889  72(v),73(v),49(v)
    26. CR (   1) C   3                  1.99912   -10.52852  330(v),229(v)
    27. CR (   1) O   4                  1.99975   -19.42121  107(v),73(v),72(v)
    28. CR (   1) C   5                  1.99913   -10.47783  330(g),327(v),185(v)
    29. CR (   1) C   7                  1.99916   -10.48103  336(g),108(v),106(v)
    30. CR (   1) O  10                  1.99978   -19.46291  129(v),178(v)
    31. CR (   1) C  12                  1.99909   -10.47069  339(g),108(v),232(v)
    32. CR (   1) O  14                  1.99980   -19.40102  181(v),223(v),221(v)
    33. CR (   1) C  16                  1.99901   -10.46492  343(g),74(v),72(v)
    34. CR (   1) O  18                  1.99980   -19.41327  227(v),267(v)
    35. CR (   1) C  20                  1.99909   -10.46533  347(g),74(v),75(v)
    36. CR (   1) O  23                  1.99980   -19.44893  273(v),321(v)
    37. LP (   1) O   2                  1.97674    -0.68951  72(v),328(v),73(v),49(v)
                                                    329(v),347(r)
    38. LP (   2) O   2                  1.91842    -0.38081  327(v),328(v),329(v),50(v)
                                                    73(v),75(v),347(r)
    39. LP (   1) O   4                  1.96851    -0.65333  333(v),107(v),328(v),73(v)
                                                    326(v),72(v),75(v),106(v)
                                                    331(v)
    40. LP (   2) O   4                  1.91629    -0.38717  329(v),331(v),326(v),332(v)
                                                    109(v),76(v),346(r),328(v)
                                                    334(r),108(v)
    41. LP (   1) O  10                  1.97037    -0.58319  334(v),344(r),175(v),335(v)
                                                    129(v),132(v),332(v)
    42. LP (   2) O  10                  1.96249    -0.58600  344(r),335(v),129(v),176(v)
                                                    332(v),334(v),175(v)
    43. LP (   1) O  14                  1.97518    -0.68004  181(v),338(v),333(v),221(v)
                                                    340(v)
    44. LP (   2) O  14                  1.95387    -0.37821  340(v),333(v),222(v),183(v)
                                                    343(r)
    45. LP (   1) O  18                  1.97560    -0.68629  227(v),342(v),340(v),267(v)
    46. LP (   2) O  18                  1.94451    -0.39226  328(v),325(r),340(v),268(v)
                                                    342(v),229(v),329(r),232(v)
    47. LP (   1) O  23                  1.97737    -0.69522  346(v),341(r),273(v),329(v)
                                                    320(v)
    48. LP (   2) O  23                  1.95096    -0.45179  341(r),329(v),345(v),319(v)
                                                    326(r),276(v),274(v)
    49. RY*(   1) H   1                  0.00202     1.60016   
    50. RY*(   2) H   1                  0.00147     1.63262   
    51. RY*(   3) H   1                  0.00077     1.71005   
    52. RY*(   4) H   1                  0.00036     1.46864   
    53. RY*(   5) H   1                  0.00017     0.59352   
    54. RY*(   6) H   1                  0.00003     2.33476   
    55. RY*(   1) O   2                  0.00325     0.85778   
    56. RY*(   2) O   2                  0.00210     0.74048   
    57. RY*(   3) O   2                  0.00067     1.20346   
    58. RY*(   4) O   2                  0.00040     0.72527   
    59. RY*(   5) O   2                  0.00011     1.77192   
    60. RY*(   6) O   2                  0.00012     1.17354   
    61. RY*(   7) O   2                  0.00006     1.08288   
    62. RY*(   8) O   2                  0.00005     3.64301   
    63. RY*(   9) O   2                  0.00003     2.88223   
    64. RY*(  10) O   2                  0.00001     3.65732   
    65. RY*(  11) O   2                  0.00002     1.81540   
    66. RY*(  12) O   2                  0.00000     5.13909   
    67. RY*(  13) O   2                  0.00001     3.97198   
    68. RY*(  14) O   2                  0.00001     3.29605   
    69. RY*(  15) O   2                  0.00000    49.65241   
    70. RY*(  16) O   2                  0.00000     5.18613   
    71. RY*(  17) O   2                  0.00001     3.05009   
    72. RY*(   1) C   3                  0.00882     1.00240   
    73. RY*(   2) C   3                  0.00761     1.13365   
    74. RY*(   3) C   3                  0.00486     1.13408   
    75. RY*(   4) C   3                  0.00276     1.48218   
    76. RY*(   5) C   3                  0.00218     1.56430   
    77. RY*(   6) C   3                  0.00187     1.76603   
    78. RY*(   7) C   3                  0.00167     1.73218   
    79. RY*(   8) C   3                  0.00093     1.60401   
    80. RY*(   9) C   3                  0.00056     1.41878   
    81. RY*(  10) C   3                  0.00022     1.31358   
    82. RY*(  11) C   3                  0.00018     2.85970   
    83. RY*(  12) C   3                  0.00012     1.70806   
    84. RY*(  13) C   3                  0.00009     1.95963   
    85. RY*(  14) C   3                  0.00006     3.01684   
    86. RY*(  15) C   3                  0.00003     2.01976   
    87. RY*(  16) C   3                  0.00003     4.91371   
    88. RY*(  17) C   3                  0.00001    18.67058   
    89. RY*(   1) O   4                  0.00740     0.76976   
    90. RY*(   2) O   4                  0.00456     0.46069   
    91. RY*(   3) O   4                  0.00261     0.95599   
    92. RY*(   4) O   4                  0.00134     0.52783   
    93. RY*(   5) O   4                  0.00101     1.16895   
    94. RY*(   6) O   4                  0.00064     1.41518   
    95. RY*(   7) O   4                  0.00048     1.65687   
    96. RY*(   8) O   4                  0.00019     1.53774   
    97. RY*(   9) O   4                  0.00012     2.98606   
    98. RY*(  10) O   4                  0.00007     3.59798   
    99. RY*(  11) O   4                  0.00005     3.32289   
   100. RY*(  12) O   4                  0.00002     5.22395   
   101. RY*(  13) O   4                  0.00002     3.20180   
   102. RY*(  14) O   4                  0.00001     3.06657   
   103. RY*(  15) O   4                  0.00000     5.08871   
   104. RY*(  16) O   4                  0.00000    49.53340   
   105. RY*(  17) O   4                  0.00001     5.00008   
   106. RY*(   1) C   5                  0.00639     0.98109   
   107. RY*(   2) C   5                  0.00490     0.82045   
   108. RY*(   3) C   5                  0.00357     0.91380   
   109. RY*(   4) C   5                  0.00223     1.42994   
   110. RY*(   5) C   5                  0.00146     1.48903   
   111. RY*(   6) C   5                  0.00079     1.58481   
   112. RY*(   7) C   5                  0.00056     1.60085   
   113. RY*(   8) C   5                  0.00038     1.68990   
   114. RY*(   9) C   5                  0.00025     1.67201   
   115. RY*(  10) C   5                  0.00022     2.28918   
   116. RY*(  11) C   5                  0.00014     1.60905   
   117. RY*(  12) C   5                  0.00011     1.31022   
   118. RY*(  13) C   5                  0.00008     2.40155   
   119. RY*(  14) C   5                  0.00003     1.61475   
   120. RY*(  15) C   5                  0.00003     2.09812   
   121. RY*(  16) C   5                  0.00001    22.85414   
   122. RY*(  17) C   5                  0.00001     2.79409   
   123. RY*(   1) H   6                  0.00129     0.88329   
   124. RY*(   2) H   6                  0.00026     1.71488   
   125. RY*(   3) H   6                  0.00016     1.90137   
   126. RY*(   4) H   6                  0.00011     1.18322   
   127. RY*(   5) H   6                  0.00008     2.10048   
   128. RY*(   6) H   6                  0.00005     2.03767   
   129. RY*(   1) C   7                  0.00311     1.04376   
   130. RY*(   2) C   7                  0.00211     0.88898   
   131. RY*(   3) C   7                  0.00173     1.08745   
   132. RY*(   4) C   7                  0.00141     1.75707   
   133. RY*(   5) C   7                  0.00122     1.01093   
   134. RY*(   6) C   7                  0.00051     1.30349   
   135. RY*(   7) C   7                  0.00021     1.99122   
   136. RY*(   8) C   7                  0.00014     1.17968   
   137. RY*(   9) C   7                  0.00011     2.49570   
   138. RY*(  10) C   7                  0.00006     1.16932   
   139. RY*(  11) C   7                  0.00003     1.69033   
   140. RY*(  12) C   7                  0.00003     2.64118   
   141. RY*(  13) C   7                  0.00003     2.74627   
   142. RY*(  14) C   7                  0.00004     1.11291   
   143. RY*(  15) C   7                  0.00001     1.88657   
   144. RY*(  16) C   7                  0.00001     1.71052   
   145. RY*(  17) C   7                  0.00000    21.65160   
   146. RY*(   1) H   8                  0.00104     0.62762   
   147. RY*(   2) H   8                  0.00019     1.98396   
   148. RY*(   3) H   8                  0.00013     1.38329   
   149. RY*(   4) H   8                  0.00009     1.66087   
   150. RY*(   5) H   8                  0.00007     1.54015   
   151. RY*(   6) H   8                  0.00003     2.28694   
   152. RY*(   1) H   9                  0.00121     0.72225   
   153. RY*(   2) H   9                  0.00016     1.87090   
   154. RY*(   3) H   9                  0.00015     2.01421   
   155. RY*(   4) H   9                  0.00009     2.07752   
   156. RY*(   5) H   9                  0.00007     0.56508   
   157. RY*(   6) H   9                  0.00003     2.20613   
   158. RY*(   1) O  10                  0.00284     1.00120   
   159. RY*(   2) O  10                  0.00224     0.73659   
   160. RY*(   3) O  10                  0.00050     0.93830   
   161. RY*(   4) O  10                  0.00028     0.77563   
   162. RY*(   5) O  10                  0.00014     1.12830   
   163. RY*(   6) O  10                  0.00010     1.59987   
   164. RY*(   7) O  10                  0.00011     1.43365   
   165. RY*(   8) O  10                  0.00005     1.35263   
   166. RY*(   9) O  10                  0.00002     3.45972   
   167. RY*(  10) O  10                  0.00002     3.28193   
   168. RY*(  11) O  10                  0.00002     3.13208   
   169. RY*(  12) O  10                  0.00000     4.67685   
   170. RY*(  13) O  10                  0.00000     4.83616   
   171. RY*(  14) O  10                  0.00001     3.10059   
   172. RY*(  15) O  10                  0.00001     3.10885   
   173. RY*(  16) O  10                  0.00000    49.61984   
   174. RY*(  17) O  10                  0.00000     4.86767   
   175. RY*(   1) H  11                  0.00165     1.57399   
   176. RY*(   2) H  11                  0.00117     1.77590   
   177. RY*(   3) H  11                  0.00045     0.94554   
   178. RY*(   4) H  11                  0.00027     1.60676   
   179. RY*(   5) H  11                  0.00008     0.62149   
   180. RY*(   6) H  11                  0.00002     2.60413   
   181. RY*(   1) C  12                  0.00648     0.86937   
   182. RY*(   2) C  12                  0.00438     0.92434   
   183. RY*(   3) C  12                  0.00309     1.38558   
   184. RY*(   4) C  12                  0.00230     1.18609   
   185. RY*(   5) C  12                  0.00122     1.17237   
   186. RY*(   6) C  12                  0.00066     1.34243   
   187. RY*(   7) C  12                  0.00056     1.34430   
   188. RY*(   8) C  12                  0.00033     2.21926   
   189. RY*(   9) C  12                  0.00021     1.61740   
   190. RY*(  10) C  12                  0.00017     2.43924   
   191. RY*(  11) C  12                  0.00009     1.27924   
   192. RY*(  12) C  12                  0.00008     3.03790   
   193. RY*(  13) C  12                  0.00007     1.23363   
   194. RY*(  14) C  12                  0.00005     1.42861   
   195. RY*(  15) C  12                  0.00003     5.04971   
   196. RY*(  16) C  12                  0.00003     1.68784   
   197. RY*(  17) C  12                  0.00000    20.49639   
   198. RY*(   1) H  13                  0.00136     0.88955   
   199. RY*(   2) H  13                  0.00031     1.06891   
   200. RY*(   3) H  13                  0.00015     2.28223   
   201. RY*(   4) H  13                  0.00013     1.88547   
   202. RY*(   5) H  13                  0.00012     1.74557   
   203. RY*(   6) H  13                  0.00008     2.01521   
   204. RY*(   1) O  14                  0.00314     0.71988   
   205. RY*(   2) O  14                  0.00138     0.85422   
   206. RY*(   3) O  14                  0.00048     1.06003   
   207. RY*(   4) O  14                  0.00019     1.56070   
   208. RY*(   5) O  14                  0.00010     1.20360   
   209. RY*(   6) O  14                  0.00005     1.59088   
   210. RY*(   7) O  14                  0.00005     1.23519   
   211. RY*(   8) O  14                  0.00003     1.27946   
   212. RY*(   9) O  14                  0.00003     3.45221   
   213. RY*(  10) O  14                  0.00004     2.89327   
   214. RY*(  11) O  14                  0.00000     4.89006   
   215. RY*(  12) O  14                  0.00000     5.17628   
   216. RY*(  13) O  14                  0.00000     3.19039   
   217. RY*(  14) O  14                  0.00000     3.38029   
   218. RY*(  15) O  14                  0.00000     2.96046   
   219. RY*(  16) O  14                  0.00000     4.85458   
   220. RY*(  17) O  14                  0.00000    49.74490   
   221. RY*(   1) H  15                  0.00197     1.43635   
   222. RY*(   2) H  15                  0.00143     1.65434   
   223. RY*(   3) H  15                  0.00074     1.97152   
   224. RY*(   4) H  15                  0.00031     1.57823   
   225. RY*(   5) H  15                  0.00015     0.59345   
   226. RY*(   6) H  15                  0.00004     2.41138   
   227. RY*(   1) C  16                  0.00678     0.90374   
   228. RY*(   2) C  16                  0.00445     0.92766   
   229. RY*(   3) C  16                  0.00310     1.19396   
   230. RY*(   4) C  16                  0.00185     1.47622   
   231. RY*(   5) C  16                  0.00117     1.21126   
   232. RY*(   6) C  16                  0.00094     1.08427   
   233. RY*(   7) C  16                  0.00054     1.85338   
   234. RY*(   8) C  16                  0.00036     1.74184   
   235. RY*(   9) C  16                  0.00022     1.39975   
   236. RY*(  10) C  16                  0.00016     1.30716   
   237. RY*(  11) C  16                  0.00009     2.17262   
   238. RY*(  12) C  16                  0.00009     2.44141   
   239. RY*(  13) C  16                  0.00005     2.51179   
   240. RY*(  14) C  16                  0.00005     1.59881   
   241. RY*(  15) C  16                  0.00002     3.10328   
   242. RY*(  16) C  16                  0.00003     2.35755   
   243. RY*(  17) C  16                  0.00000    21.57443   
   244. RY*(   1) H  17                  0.00112     0.88909   
   245. RY*(   2) H  17                  0.00030     1.21267   
   246. RY*(   3) H  17                  0.00015     1.98301   
   247. RY*(   4) H  17                  0.00011     2.09088   
   248. RY*(   5) H  17                  0.00008     1.64095   
   249. RY*(   6) H  17                  0.00007     2.05697   
   250. RY*(   1) O  18                  0.00342     0.67342   
   251. RY*(   2) O  18                  0.00175     0.72902   
   252. RY*(   3) O  18                  0.00071     0.71478   
   253. RY*(   4) O  18                  0.00033     1.76633   
   254. RY*(   5) O  18                  0.00017     1.36241   
   255. RY*(   6) O  18                  0.00009     1.23843   
   256. RY*(   7) O  18                  0.00005     1.25629   
   257. RY*(   8) O  18                  0.00006     1.53515   
   258. RY*(   9) O  18                  0.00003     3.14308   
   259. RY*(  10) O  18                  0.00001     3.32298   
   260. RY*(  11) O  18                  0.00000     5.16508   
   261. RY*(  12) O  18                  0.00000     5.20194   
   262. RY*(  13) O  18                  0.00001     3.24819   
   263. RY*(  14) O  18                  0.00001     3.21852   
   264. RY*(  15) O  18                  0.00001     3.13080   
   265. RY*(  16) O  18                  0.00000    49.64498   
   266. RY*(  17) O  18                  0.00000     4.77454   
   267. RY*(   1) H  19                  0.00194     1.61030   
   268. RY*(   2) H  19                  0.00139     1.65382   
   269. RY*(   3) H  19                  0.00076     1.85786   
   270. RY*(   4) H  19                  0.00018     1.65113   
   271. RY*(   5) H  19                  0.00014     0.71286   
   272. RY*(   6) H  19                  0.00008     2.32952   
   273. RY*(   1) C  20                  0.00598     0.87179   
   274. RY*(   2) C  20                  0.00346     1.15280   
   275. RY*(   3) C  20                  0.00233     0.94628   
   276. RY*(   4) C  20                  0.00148     1.15803   
   277. RY*(   5) C  20                  0.00121     1.04669   
   278. RY*(   6) C  20                  0.00076     1.53168   
   279. RY*(   7) C  20                  0.00025     1.49465   
   280. RY*(   8) C  20                  0.00016     0.89527   
   281. RY*(   9) C  20                  0.00013     1.62698   
   282. RY*(  10) C  20                  0.00009     1.55646   
   283. RY*(  11) C  20                  0.00008     2.32612   
   284. RY*(  12) C  20                  0.00004     2.24608   
   285. RY*(  13) C  20                  0.00002     1.78123   
   286. RY*(  14) C  20                  0.00002     2.87277   
   287. RY*(  15) C  20                  0.00001     1.78742   
   288. RY*(  16) C  20                  0.00002     2.56383   
   289. RY*(  17) C  20                  0.00000    21.96189   
   290. RY*(   1) H  21                  0.00119     0.93735   
   291. RY*(   2) H  21                  0.00022     1.68371   
   292. RY*(   3) H  21                  0.00016     1.59130   
   293. RY*(   4) H  21                  0.00007     1.02812   
   294. RY*(   5) H  21                  0.00006     2.20795   
   295. RY*(   6) H  21                  0.00003     2.20154   
   296. RY*(   1) H  22                  0.00095     0.72737   
   297. RY*(   2) H  22                  0.00018     1.23455   
   298. RY*(   3) H  22                  0.00015     2.09005   
   299. RY*(   4) H  22                  0.00012     1.65853   
   300. RY*(   5) H  22                  0.00006     1.99498   
   301. RY*(   6) H  22                  0.00007     1.96460   
   302. RY*(   1) O  23                  0.00253     0.80738   
   303. RY*(   2) O  23                  0.00135     0.64175   
   304. RY*(   3) O  23                  0.00058     0.98827   
   305. RY*(   4) O  23                  0.00055     1.31690   
   306. RY*(   5) O  23                  0.00029     1.58777   
   307. RY*(   6) O  23                  0.00012     1.14588   
   308. RY*(   7) O  23                  0.00004     1.21734   
   309. RY*(   8) O  23                  0.00004     1.11942   
   310. RY*(   9) O  23                  0.00004     2.89699   
   311. RY*(  10) O  23                  0.00000    49.72654   
   312. RY*(  11) O  23                  0.00000     5.01556   
   313. RY*(  12) O  23                  0.00000     5.31027   
   314. RY*(  13) O  23                  0.00001     2.64454   
   315. RY*(  14) O  23                  0.00000     3.13019   
   316. RY*(  15) O  23                  0.00000     5.12504   
   317. RY*(  16) O  23                  0.00001     3.24446   
   318. RY*(  17) O  23                  0.00000     3.40202   
   319. RY*(   1) H  24                  0.00171     1.46158   
   320. RY*(   2) H  24                  0.00125     1.88852   
   321. RY*(   3) H  24                  0.00046     1.50116   
   322. RY*(   4) H  24                  0.00034     1.22129   
   323. RY*(   5) H  24                  0.00008     0.62625   
   324. RY*(   6) H  24                  0.00002     2.55993   
   325. BD*(   1) H   1 - O   2          0.02054     0.50034   
   326. BD*(   1) O   2 - C   3          0.04017     0.39822   
   327. BD*(   1) C   3 - O   4          0.08184     0.34627   
   328. BD*(   1) C   3 - C  16          0.06193     0.39632   
   329. BD*(   1) C   3 - C  20          0.05074     0.42250   
   330. BD*(   1) O   4 - C   5          0.03135     0.35054   
   331. BD*(   1) C   5 - H   6          0.02665     0.45394   
   332. BD*(   1) C   5 - C   7          0.02988     0.43255   
   333. BD*(   1) C   5 - C  12          0.04408     0.39766   
   334. BD*(   1) C   7 - H   8          0.02072     0.42935   
   335. BD*(   1) C   7 - H   9          0.02232     0.43675   
   336. BD*(   1) C   7 - O  10          0.01557     0.32970   
   337. BD*(   1) O  10 - H  11          0.00556     0.47156   
   338. BD*(   1) C  12 - H  13          0.02411     0.45982   
   339. BD*(   1) C  12 - O  14          0.01814     0.37433   
   340. BD*(   1) C  12 - C  16          0.03832     0.42157   
   341. BD*(   1) O  14 - H  15          0.02614     0.51623   
   342. BD*(   1) C  16 - H  17          0.02282     0.46652   
   343. BD*(   1) C  16 - O  18          0.01740     0.36490   
   344. BD*(   1) O  18 - H  19          0.02712     0.50805   
   345. BD*(   1) C  20 - H  21          0.01875     0.44752   
   346. BD*(   1) C  20 - H  22          0.01648     0.45215   
   347. BD*(   1) C  20 - O  23          0.01060     0.35051   
   348. BD*(   1) O  23 - H  24          0.00715     0.47692   
       -------------------------------
              Total Lewis   95.11863  ( 99.0819%)
        Valence non-Lewis    0.67838  (  0.7066%)
        Rydberg non-Lewis    0.20299  (  0.2114%)
       -------------------------------
            Total unit  1   96.00000  (100.0000%)
           Charge unit  1    0.00000
 Sorting of NBOs:                   30   36   27   34   32   25   26   29   28   31
 Sorting of NBOs:                   35   33    2   12   23   19   15    3    6   13
 Sorting of NBOs:                   24   20   17    1    8    5    4   47    9   16
 Sorting of NBOs:                   37   45   43   39   10   11    7   22   21   18
 Sorting of NBOs:                   14   42   41   48   46   40   38   44  336  327
 Sorting of NBOs:                  347  330  343  339  328  333  326  340  329  334
 Sorting of NBOs:                  332  335  345  346  331  338   90  342  337  348
 Sorting of NBOs:                  325  344  341   92  156  225   53  179  323  146
 Sorting of NBOs:                  303  250  271  252  204  152   58  296  251  159
 Sorting of NBOs:                   56   89  161  302  107  205   55  181  273  123
 Sorting of NBOs:                  130  244  198  280  227  108  182  228  290  160
 Sorting of NBOs:                  177  275   91  106  304  158   72  133  293  129
 Sorting of NBOs:                  277  206  199   61  232  131  142  309  162   73
 Sorting of NBOs:                   74  307  274  276   93  138  185   60  136  126
 Sorting of NBOs:                  184  229   57  208  231  245  308  322  193  297
 Sorting of NBOs:                  210  255  256  191  211  134  236  117   81  305
 Sorting of NBOs:                  186  187  165  254  148  183  235   94   80  194
 Sorting of NBOs:                  109  164  221  319   52  230   75  110  279  321
 Sorting of NBOs:                  278  257   96  150  282  207   76  175  224  111
 Sorting of NBOs:                  306  209  292  240  163   49  112   79  178  116
 Sorting of NBOs:                  267  119  189  281   50  248  270  268  222   95
 Sorting of NBOs:                  299  149  114  291  196  113  139   83   51  144
 Sorting of NBOs:                  124   78  234  202  132   77  253   59  176  285
 Sorting of NBOs:                  287   65  233  269  153  201  143  320  125   84
 Sorting of NBOs:                  301  223  246  147  135  300  154  203   86  128
 Sorting of NBOs:                  249  155  298  247  120  127  237  295  157  294
 Sorting of NBOs:                  188  284  200  151  115  283  272   54  242  118
 Sorting of NBOs:                  226  190  238  137  239  324  288  180  140  314
 Sorting of NBOs:                  141  122   82  286   63  213  310  218   97   85
 Sorting of NBOs:                  192   71  102  171  241  172  315  264  168  258
 Sorting of NBOs:                  216  101  263  317  262  167   68   99  259  217
 Sorting of NBOs:                  318  212  166   98   62   64   67  169  266  170
 Sorting of NBOs:                  219  174  214   87  105  312  195  103  316   66
 Sorting of NBOs:                  260  215   70  261  100  313   88  197  243  145
 Sorting of NBOs:                  289  121  104  173  265   69  311  220
 Reordering of NBOs for storage:    30   36   27   34   32   25   26   29   28   31
 Reordering of NBOs for storage:    35   33    2   12   23   19   15    3    6   13
 Reordering of NBOs for storage:    24   20   17    1    8    5    4   47    9   16
 Reordering of NBOs for storage:    37   45   43   39   10   11    7   22   21   18
 Reordering of NBOs for storage:    14   42   41   48   46   40   38   44  336  327
 Reordering of NBOs for storage:   347  330  343  339  328  333  326  340  329  334
 Reordering of NBOs for storage:   332  335  345  346  331  338  342  337  348  325
 Reordering of NBOs for storage:   344  341   90   92  156  225   53  179  323  146
 Reordering of NBOs for storage:   303  250  271  252  204  152   58  296  251  159
 Reordering of NBOs for storage:    56   89  161  302  107  205   55  181  273  123
 Reordering of NBOs for storage:   130  244  198  280  227  108  182  228  290  160
 Reordering of NBOs for storage:   177  275   91  106  304  158   72  133  293  129
 Reordering of NBOs for storage:   277  206  199   61  232  131  142  309  162   73
 Reordering of NBOs for storage:    74  307  274  276   93  138  185   60  136  126
 Reordering of NBOs for storage:   184  229   57  208  231  245  308  322  193  297
 Reordering of NBOs for storage:   210  255  256  191  211  134  236  117   81  305
 Reordering of NBOs for storage:   186  187  165  254  148  183  235   94   80  194
 Reordering of NBOs for storage:   109  164  221  319   52  230   75  110  279  321
 Reordering of NBOs for storage:   278  257   96  150  282  207   76  175  224  111
 Reordering of NBOs for storage:   306  209  292  240  163   49  112   79  178  116
 Reordering of NBOs for storage:   267  119  189  281   50  248  270  268  222   95
 Reordering of NBOs for storage:   299  149  114  291  196  113  139   83   51  144
 Reordering of NBOs for storage:   124   78  234  202  132   77  253   59  176  285
 Reordering of NBOs for storage:   287   65  233  269  153  201  143  320  125   84
 Reordering of NBOs for storage:   301  223  246  147  135  300  154  203   86  128
 Reordering of NBOs for storage:   249  155  298  247  120  127  237  295  157  294
 Reordering of NBOs for storage:   188  284  200  151  115  283  272   54  242  118
 Reordering of NBOs for storage:   226  190  238  137  239  324  288  180  140  314
 Reordering of NBOs for storage:   141  122   82  286   63  213  310  218   97   85
 Reordering of NBOs for storage:   192   71  102  171  241  172  315  264  168  258
 Reordering of NBOs for storage:   216  101  263  317  262  167   68   99  259  217
 Reordering of NBOs for storage:   318  212  166   98   62   64   67  169  266  170
 Reordering of NBOs for storage:   219  174  214   87  105  312  195  103  316   66
 Reordering of NBOs for storage:   260  215   70  261  100  313   88  197  243  145
 Reordering of NBOs for storage:   289  121  104  173  265   69  311  220
 Labels of output orbitals:  CR  CR  CR  CR  CR  CR  CR  CR  CR  CR  CR  CR  BD  BD  BD  BD  BD  BD  BD  BD  
 Labels of output orbitals:  BD  BD  BD  BD  BD  BD  BD  LP  BD  BD  LP  LP  LP  LP  BD  BD  BD  BD  BD  BD  
 Labels of output orbitals:  BD  LP  LP  LP  LP  LP  LP  LP  BD* BD* BD* BD* BD* BD* BD* BD* BD* BD* BD* BD* 
 Labels of output orbitals:  BD* BD* BD* BD* BD* BD* BD* BD* BD* BD* BD* BD* RY* RY* RY* RY* RY* RY* RY* RY* 
 Labels of output orbitals:  RY* RY* RY* RY* RY* RY* RY* RY* RY* RY* RY* RY* RY* RY* RY* RY* RY* RY* RY* RY* 
 Labels of output orbitals:  RY* RY* RY* RY* RY* RY* RY* RY* RY* RY* RY* RY* RY* RY* RY* RY* RY* RY* RY* RY* 
 Labels of output orbitals:  RY* RY* RY* RY* RY* RY* RY* RY* RY* RY* RY* RY* RY* RY* RY* RY* RY* RY* RY* RY* 
 Labels of output orbitals:  RY* RY* RY* RY* RY* RY* RY* RY* RY* RY* RY* RY* RY* RY* RY* RY* RY* RY* RY* RY* 
 Labels of output orbitals:  RY* RY* RY* RY* RY* RY* RY* RY* RY* RY* RY* RY* RY* RY* RY* RY* RY* RY* RY* RY* 
 Labels of output orbitals:  RY* RY* RY* RY* RY* RY* RY* RY* RY* RY* RY* RY* RY* RY* RY* RY* RY* RY* RY* RY* 
 Labels of output orbitals:  RY* RY* RY* RY* RY* RY* RY* RY* RY* RY* RY* RY* RY* RY* RY* RY* RY* RY* RY* RY* 
 Labels of output orbitals:  RY* RY* RY* RY* RY* RY* RY* RY* RY* RY* RY* RY* RY* RY* RY* RY* RY* RY* RY* RY* 
 Labels of output orbitals:  RY* RY* RY* RY* RY* RY* RY* RY* RY* RY* RY* RY* RY* RY* RY* RY* RY* RY* RY* RY* 
 Labels of output orbitals:  RY* RY* RY* RY* RY* RY* RY* RY* RY* RY* RY* RY* RY* RY* RY* RY* RY* RY* RY* RY* 
 Labels of output orbitals:  RY* RY* RY* RY* RY* RY* RY* RY* RY* RY* RY* RY* RY* RY* RY* RY* RY* RY* RY* RY* 
 Labels of output orbitals:  RY* RY* RY* RY* RY* RY* RY* RY* RY* RY* RY* RY* RY* RY* RY* RY* RY* RY* RY* RY* 
 Labels of output orbitals:  RY* RY* RY* RY* RY* RY* RY* RY* RY* RY* RY* RY* RY* RY* RY* RY* RY* RY* RY* RY* 
 Labels of output orbitals:  RY* RY* RY* RY* RY* RY* RY* RY* 
 1\1\GINC-QUITEX-GROUP\SP\RM062X\6-311++G(d,p)\C6H12O6\QUITEX\08-Sep-20
 26\0\\# m062x/6-311++g(d,p) pop(nbo,savenbo)\\Title Card Required\\0,1
 \H,0,0.081422,2.53702,0.127679\O,0,0.833777,2.191102,-0.375163\C,0,0.8
 40172,0.818805,-0.194139\O,0,0.032222,0.188846,-1.192042\C,0,-0.710747
 ,-0.916014,-0.664034\H,0,-0.36306,-1.842494,-1.131851\C,0,-2.177199,-0
 .741484,-0.998558\H,0,-2.717049,-1.647701,-0.707151\H,0,-2.288793,-0.5
 8682,-2.075161\O,0,-2.669418,0.388736,-0.283506\H,0,-3.613523,0.489369
 ,-0.433644\C,0,-0.414336,-0.976472,0.85468\H,0,-1.328799,-1.121663,1.4
 31396\O,0,0.452589,-2.031977,1.206349\H,0,1.272724,-1.920173,0.699243\
 C,0,0.177412,0.407638,1.145525\H,0,0.897843,0.371524,1.962978\O,0,-0.8
 12433,1.358926,1.48557\H,0,-1.616388,1.157764,0.973241\C,0,2.291185,0.
 376029,-0.377416\H,0,2.684621,0.873771,-1.267272\H,0,2.882747,0.676898
 ,0.487617\O,0,2.404132,-1.035208,-0.499897\H,0,2.142383,-1.281921,-1.3
 93916\\Version=EM64L-G09RevA.01\State=1-A\HF=-687.1452536\RMSD=5.549e-
 09\Dipole=-1.1358585,-0.4755191,-0.9234524\Quadrupole=10.0979468,-6.65
 73085,-3.4406382,0.9884985,1.5480104,5.0308285\PG=C01 [X(C6H12O6)]\\@


 10 WHATSOEVER THY HAND FINDETH TO DO, DO IT WITH THY  
 MIGHT. FOR THERE IS NO WORK, NOR DEVICE, NOR KNOWLEDGE, NOR  
 WISDOM, IN THE GRAVE, WHITHER THOU GOEST.                    
 11 I RETURNED AND SAW UNDER THE SUN, THAT THE RACE IS NOT TO 
 THE SWIFT, NOR THE BATTLE TO THE STRONG, NEITHER YET BREAD TO
 THE WISE, NOR YET RICHES TO MEN OF UNDERSTANDING, NOR YET    
 FAVOR TO MEN OF SKILL. BUT TIME AND CHANCE HAPPEN TO THEM ALL.
 12 FOR MAN ALSO KNOWETH NOT HIS TIME. AS THE FISHES   
 THAT ARE TAKEN IN AN EVIL NET, AND AS THE BIRDS THAT ARE     
 CAUGHT IN THE SNARE. SO ARE THE SONS OF MEN SNARED IN AN EVIL
 TIME, WHEN IT FALLETH SUDDENLY UPON THEM.
                                         ECCLESIASTES 9
 Job cpu time:  0 days  0 hours  8 minutes 27.9 seconds.
 File lengths (MBytes):  RWF=     68 Int=      0 D2E=      0 Chk=      5 Scr=      1
 Normal termination of Gaussian 09 at Tue Sep  8 09:32:00 2026.
